 C  H  O Si  W                          
   1.0000000000000000     
    23.4112945954000011    0.0000000000000000    0.0000000000000000
     0.0000000000000000   18.1212369514000002    0.0000000000000000
     0.0000000000000000    0.0000000000000000   26.8833665072999999
   C    H    O    Si   W 
     2    48   154    65     1
Selective dynamics
Direct
  0.5553753598796334  0.5227114945959670  0.7343500598755313   T   T   T
  0.5770094607587666  0.5056390779999305  0.7839083839704202   T   T   T
  0.7605558122994083  0.1037066689288579  0.6509766990015891   F   F   F
  0.9264276758305172  0.2786689626896504  0.3563349293400009   F   F   F
  0.7933396966457948  0.2072788970903972  0.3734565163880745   F   F   F
  0.9745391126846457  0.9436086004040121  0.3253027906056829   F   F   F
  0.6257326647317640  0.9634728498404783  0.3752311999972449   F   F   F
  0.8205383985802470  0.9950066634445136  0.3689926296547128   F   F   F
  0.7499930738025071  0.1411787556975952  0.4580381926778543   F   F   F
  0.9154512777492414  0.2494666605117501  0.5090409974809376   F   F   F
  0.5834928632346532  0.3042635460806125  0.3059271726651787   F   F   F
  0.8914568516429497  0.3347125136280624  0.6160254719821054   F   F   F
  0.5883628430455872  0.3591534514193384  0.6146005998722828   F   F   F
  0.5934055062429024  0.8708654875810922  0.5779844120435627   F   F   F
  0.0337843106781364  0.3376902292283219  0.6521975983160360   F   F   F
  0.9352705076293475  0.4195142256010627  0.4541014552468710   F   F   F
  0.7461383787264921  0.5303119922813835  0.4224881911837883   F   F   F
  0.7979966316787213  0.3823062264681312  0.6348760332468899   F   F   F
  0.5911020173621253  0.5686828265718304  0.3780347436188976   F   F   F
  0.7184337867332147  0.6459327856642645  0.3834605945055571   F   F   F
  0.8411529141822527  0.5424265959195793  0.4195961671555111   F   F   F
  0.0047645486004839  0.6037981490802551  0.3577783004107076   F   F   F
  0.8283586992797254  0.7123566732624553  0.4679422553080954   F   F   F
  0.8764396896624760  0.5988378928759630  0.7216388467593404   F   F   F
  0.5199903139142066  0.9855647614121708  0.4217030704774842   F   F   F
  0.2230945721141921  0.9801548350444023  0.3932050219465495   F   F   F
  0.2163736907012108  0.2378514578535444  0.3192303272980936   F   F   F
  0.1575010503146004  0.3298062298577378  0.2789829167401123   F   F   F
  0.3415468765222016  0.1555857053997727  0.3307727584112428   F   F   F
  0.2227158616176865  0.0457589258737627  0.3227384335196248   F   F   F
  0.5111150857638407  0.8259059639171156  0.5467216596162956   F   F   F
  0.3730452284159611  0.2374490793449837  0.6472753351494305   F   F   F
  0.2436206794594256  0.0931050319454130  0.5985160927584232   F   F   F
  0.3153809712620799  0.4871364644243030  0.4424346656312608   F   F   F
  0.4089561836824345  0.4387348585376643  0.4056905975982730   F   F   F
  0.3984995031771135  0.7931136075007075  0.3887867966224334   F   F   F
  0.2442023570718419  0.6554300786283989  0.2943268807443218   F   F   F
  0.3117413815096768  0.4184757133874442  0.3692576443915385   F   F   F
  0.4054742948373828  0.5842796533148373  0.3388198885480591   F   F   F
  0.1393576205410270  0.4879736464301843  0.3519294596467617   F   F   F
  0.5932693450847850  0.6979871282750807  0.3523979868156601   F   F   F
  0.4690068300988983  0.8614274690886390  0.4438283837725479   F   F   F
  0.1217136174324267  0.3229954584887977  0.6116569510129679   F   F   F
  0.0721729666651285  0.6655056397096502  0.6455165621938761   F   F   F
  0.2401759109199517  0.3870092621507837  0.6828258567323715   F   F   F
  0.2460916335475432  0.8155641757130709  0.6691727747446663   F   F   F
  0.5568985722494872  0.4619170421275811  0.8056372243760279   T   T   T
  0.5792337918372468  0.5668618006246078  0.7152380492556532   T   T   T
  0.5823619152052260  0.4677640531564009  0.7308806202396312   T   T   T
  0.6158899314373514  0.5316142166708673  0.7978601271352019   T   T   T
  0.3689417337474836  0.6483550972712351  0.4390000177989322   F   F   F
  0.3468156499340012  0.5040338677980998  0.4203881275781143   F   F   F
  0.8606955211286333  0.5660118361876982  0.6967206575021905   F   F   F
  0.3490713473383096  0.9587101208828557  0.5302267226170798   F   F   F
  0.0334551630817046  0.9325462385616916  0.5285187832426672   F   F   F
  0.6363554822520214  0.0788685454107210  0.4893766723794641   F   F   F
  0.0686461464337711  0.0522654213252736  0.3951107345583225   F   F   F
  0.4518995423849290  0.1295623246799735  0.4205972814427668   F   F   F
  0.8058841492391053  0.2136501795425687  0.4831666074103040   F   F   F
  0.9731169594477223  0.1815556483430072  0.5987810563035936   F   F   F
  0.2747652928370670  0.2991728708608434  0.4485122250900346   F   F   F
  0.5563541661493261  0.7750912910288292  0.4417510122690658   F   F   F
  0.3918552336562868  0.9735298338774285  0.6194308801446056   F   F   F
  0.1775172398119551  0.3499684491797339  0.4052731245300478   F   F   F
  0.8664275597664215  0.6841165357596992  0.6373354534691416   F   F   F
  0.8656960101805780  0.9671769319282575  0.4670384592975196   F   F   F
  0.3010471365425786  0.7609368347250012  0.4579252567998537   F   F   F
  0.4216109455749333  0.2612522168655929  0.3795963030273342   F   F   F
  0.8112071657948476  0.4653769530613090  0.5201539738396832   F   F   F
  0.9835964111294899  0.0727595919381159  0.5212428081647289   F   F   F
  0.5141639142950964  0.4610046952618418  0.6289336851885778   F   F   F
  0.0345364060712328  0.9199477615026765  0.4294052572495062   F   F   F
  0.9630365418976012  0.3031953077946739  0.3512576249606170   F   F   F
  0.0696266904018330  0.3361057653809567  0.3763717815531962   F   F   F
  0.2082956574839798  0.7286442940463758  0.3953601014000157   F   F   F
  0.0389012628664673  0.4191019154304030  0.4991087535393461   F   F   F
  0.2397333751950868  0.2858580532876545  0.5878848193207205   F   F   F
  0.3978042191235573  0.1947190083242489  0.6447241126358136   F   F   F
  0.4553580453092820  0.5628044074638581  0.5816401468651407   F   F   F
  0.9098064158028478  0.7491805208286877  0.5575222897670784   F   F   F
  0.8691272712828919  0.1080433422095268  0.4422783307318099   F   F   F
  0.5725767945286506  0.6673318527169130  0.3761317316733468   F   F   F
  0.1424265590487721  0.1591254986639967  0.3759722435750490   F   F   F
  0.3506274674925081  0.7653008424484398  0.6067929041639886   F   F   F
  0.9109960497481637  0.8450475712761403  0.4831796236075121   F   F   F
  0.0613380104439898  0.5368717056838861  0.4422534820284341   F   F   F
  0.7083390276613883  0.5551665516973827  0.4199576800001736   F   F   F
  0.0754872572295611  0.8168068047449992  0.4829941554854784   F   F   F
  0.7004647711503367  0.8275557148620294  0.4326352913293690   F   F   F
  0.7301916594092930  0.0490201191964772  0.5430070084057945   F   F   F
  0.9189423524367015  0.3020392561955347  0.6320861659174710   F   F   F
  0.7349964739009565  0.8530676834215498  0.6130035928205615   F   F   F
  0.6251219543397468  0.5273940019123060  0.4863787091564404   F   F   F
  0.5565732986914895  0.6297030402341477  0.4672494240254110   F   F   F
  0.4251357087856817  0.2474920637910145  0.5553156402413322   F   F   F
  0.9782900937866188  0.7282436334557403  0.4767956400891720   F   F   F
  0.6540351935858766  0.5942734100031544  0.6334357575761018   F   F   F
  0.3966379491243757  0.7470106200854758  0.5151745623260808   F   F   F
  0.6026900684925138  0.5176654516222357  0.3856709925442061   F   F   F
  0.7194981850984448  0.6313636628554846  0.5570068394284036   F   F   F
  0.1467743289015928  0.3639852698400219  0.6199310523255690   F   F   F
  0.0663015619962692  0.5485481257867875  0.5419386605036962   F   F   F
  0.8189141120624370  0.8846993358227664  0.5366878630134977   F   F   F
  0.8282155306144290  0.3553851425745194  0.4519033357708793   F   F   F
  0.5273838524015275  0.2979459630601298  0.5322217972152714   F   F   F
  0.7367852316458396  0.4993723133045620  0.5953587515044561   F   F   F
  0.5574339360525684  0.1724311050277691  0.3949085375269945   F   F   F
  0.8059640829434258  0.2564125703207623  0.3832928600033014   F   F   F
  0.2374462167159379  0.9532507503228373  0.5079195554207132   F   F   F
  0.6929078505942314  0.7765217523610559  0.5415073055543402   F   F   F
  0.9238771867924527  0.9497916601701988  0.5529712934708755   F   F   F
  0.5257372223071499  0.3177811194315368  0.3985559351687087   F   F   F
  0.4685341961549270  0.9906731226248908  0.5460674864402009   F   F   F
  0.8377391623559447  0.0947918698553565  0.5397755322736231   F   F   F
  0.5379032529954273  0.1164174891624583  0.4862370923690094   F   F   F
  0.3501934424681892  0.1866087322829628  0.4396363938456389   F   F   F
  0.0117603227697671  0.9624138997505156  0.3352437574830063   F   F   F
  0.4523155131472549  0.5945413138886124  0.6750098253558861   F   F   F
  0.6549652215052149  0.9253975041590294  0.3792282539811964   F   F   F
  0.0762933429000086  0.6860262572550013  0.4358810225764742   F   F   F
  0.4533554671301303  0.4047295006064360  0.5531135896448376   F   F   F
  0.7192194365794862  0.7004208511946786  0.3795829994963285   F   F   F
  0.4517419669238194  0.7057841381555932  0.5992430757561209   F   F   F
  0.7525510590585540  0.7093245752524027  0.4762954835743187   F   F   F
  0.7785792956785329  0.1211249669522374  0.6207177669396842   F   F   F
  0.9932746154998640  0.3080134732727942  0.4484029789284989   F   F   F
  0.5344387046733416  0.5076881433610225  0.5318235598819427   F   F   F
  0.8167775851685377  0.4990617343205841  0.4234422052650615   F   F   F
  0.2357632254033817  0.1450899436484647  0.6053408829493634   F   F   F
  0.2035333056693176  0.8307013159295948  0.4705336293601903   F   F   F
  0.2399816980623939  0.5587225427105054  0.5228352682190689   F   F   F
  0.0611664286694449  0.6254539183992947  0.6236569396015312   F   F   F
  0.0460740721579711  0.6023466920262663  0.3541786312221902   F   F   F
  0.8007254929282581  0.9787987202568758  0.6058806045064600   F   F   F
  0.5379909096643800  0.0276974916307395  0.4045027517534763   F   F   F
  0.6061914643206876  0.3128383737692033  0.6049791650939866   F   F   F
  0.8615461074870723  0.0040808493425857  0.3692063291070653   F   F   F
  0.0949113079349573  0.1490228352536036  0.4670823258906296   F   F   F
  0.1714169250882733  0.2041001527996542  0.5309296135446218   F   F   F
  0.6409886548370807  0.7044387200849300  0.4548155821771758   F   F   F
  0.4367877833594562  0.4097684807507775  0.3864132536704119   F   F   F
  0.5741665628389612  0.0588097003751145  0.5711995024406917   F   F   F
  0.1514377461550822  0.5934080233507046  0.3889583608347777   F   F   F
  0.2677397900298786  0.6023375312719352  0.3923062966030031   F   F   F
  0.4402584599838875  0.3221981821637669  0.4703244327181508   F   F   F
  0.2380096658428670  0.1585111292073265  0.4299011866524154   F   F   F
  0.0727548502565369  0.1503030299397849  0.5625827049870722   F   F   F
  0.8449394039333100  0.5440455353923994  0.5998731076007360   F   F   F
  0.6211794283797261  0.2799398764502143  0.4109054511829981   F   F   F
  0.6026669933268991  0.8915266656811696  0.4672234595428861   F   F   F
  0.0313853911711632  0.1952898289720011  0.3889918752683101   F   F   F
  0.6079252816286456  0.1954538729018296  0.5473982756837614   F   F   F
  0.1327997262830110  0.9383546444265392  0.4794870772378772   F   F   F
  0.0802747870634164  0.2803987325940938  0.5116002955850973   F   F   F
  0.3724674008651903  0.1050822736874153  0.5680435707602811   F   F   F
  0.0666377427243390  0.6970377340866776  0.5357259184179171   F   F   F
  0.6664883802395920  0.4153848774500162  0.4300115561107631   F   F   F
  0.7993589833608894  0.7296197305786265  0.5641270915256555   F   F   F
  0.7038385585664102  0.9572084331836876  0.4701845621740759   F   F   F
  0.5973108730343029  0.6343872254641667  0.5532648036538887   F   F   F
  0.7228402998194312  0.2936846539655704  0.4516681052539582   F   F   F
  0.9775521352710328  0.3141760633938517  0.5472339137103504   F   F   F
  0.1583523977109280  0.6299128672486631  0.5705826916203236   F   F   F
  0.6333338447636834  0.3267830791508146  0.5078007023299378   F   F   F
  0.8195896149395665  0.3963261111307546  0.6055586710646992   F   F   F
  0.9585781980424741  0.0272430442537654  0.4169530046787955   F   F   F
  0.2820425780755471  0.1950880449864698  0.5186497503495104   F   F   F
  0.2492575497062219  0.4430328890313291  0.4610556955705079   F   F   F
  0.2732325330105425  0.8496267162665276  0.5680723147343372   F   F   F
  0.2036681492717136  0.6855731693326916  0.4868887178860462   F   F   F
  0.1471234534025641  0.4760698765562736  0.4925449251270066   F   F   F
  0.2245642921385311  0.4227069940330423  0.5568731166326941   F   F   F
  0.9114169782388899  0.4527445980703959  0.4737188145108959   F   F   F
  0.8697881760712605  0.7045601104075629  0.4641535209108483   F   F   F
  0.7381202077648155  0.0928346184210156  0.4452296472671975   F   F   F
  0.2221834364137223  0.9297811896885051  0.4079468165165281   F   F   F
  0.2518198869676738  0.4016007764278413  0.6496860153380268   F   F   F
  0.6304109142820380  0.8832698382630397  0.5934405986234665   F   F   F
  0.4102232652989244  0.7890623918912638  0.4234373851432949   F   F   F
  0.9177713526838360  0.1960382935517870  0.5082451459005242   F   F   F
  0.1325470583719763  0.4435361137187215  0.3322726622007863   F   F   F
  0.1551476808383612  0.3035232550984901  0.3105604161752922   F   F   F
  0.3730051452223293  0.1309070431484400  0.3479534200993726   F   F   F
  0.0345663386124144  0.2919312529168536  0.6334421216096757   F   F   F
  0.5726892607312024  0.2568681912710389  0.3200996781806822   F   F   F
  0.2449473408786389  0.7706978006952312  0.6494991517198372   F   F   F
  0.2073742988503469  0.6484050495897407  0.3103690611938177   F   F   F
  0.2753744117323080  0.3921912989361900  0.3673758273212613   F   F   F
  0.3653508124399352  0.5975866320683707  0.3422207943191111   F   F   F
  0.2263808501748272  0.0561808239321806  0.3581188824802055   F   F   F
  0.2412033349838580  0.1960782275144553  0.3293429668079639   F   F   F
  0.5012729261245497  0.8923016217637851  0.4548416832162587   F   F   F
  0.5500846811656146  0.8278468037920206  0.5343645888971125   F   F   F
  0.5449299895139532  0.6458382718193860  0.6351760156377679   F   F   F
  0.4783539588746137  0.1225160220677708  0.5961998413070191   F   F   F
  0.2626213159457080  0.6942948315982562  0.5684875331243404   F   F   F
  0.4423494620644988  0.8478359554655270  0.5813720947300567   F   F   F
  0.7654697700270461  0.6168790766126691  0.6494319200294427   F   F   F
  0.8447596630525993  0.8316962516580233  0.6230095691915096   F   F   F
  0.6399118771283625  0.7394710667373019  0.6209568384264941   F   F   F
  0.0081326762272624  0.0334699984210616  0.6029809466772917   F   F   F
  0.2845921398430633  0.0020416732951958  0.5933464437010230   F   F   F
  0.5031551398867435  0.9722478154414276  0.6286750701895301   F   F   F
  0.4507561617552511  0.4370942101111552  0.7320152942051621   T   T   T
  0.0832252792112911  0.6064203006159019  0.4064130837160320   F   F   F
  0.4090181784613449  0.7663283122853244  0.5743849795016729   F   F   F
  0.8417638189206400  0.4414531150138714  0.4678389696388976   F   F   F
  0.0170894936360568  0.9904820387337452  0.3936113541928137   F   F   F
  0.0147002065988957  0.2841902735343993  0.3910814136036507   F   F   F
  0.0092449509588448  0.1150735070602522  0.5725003410850533   F   F   F
  0.6092228267358237  0.6576276073334029  0.6109367573972619   F   F   F
  0.2139906669600151  0.4758600893084619  0.5097383366775716   F   F   F
  0.9150621277607272  0.7555609372428762  0.4962545438487922   F   F   F
  0.5205785424525260  0.1104556259083296  0.4259865881079392   F   F   F
  0.4184601569614870  0.1697823277026274  0.5889406645801998   F   F   F
  0.0834525281222085  0.1391720768766334  0.4069808717903314   F   F   F
  0.7018979344879455  0.0448462543081121  0.4873230277072054   F   F   F
  0.6650593546056740  0.8980374632893202  0.4374764361266443   F   F   F
  0.6500987439622605  0.5040270568778311  0.4301508871204760   F   F   F
  0.1984606475206618  0.9124822312100775  0.4639906909803457   F   F   F
  0.2143197133793251  0.3664743434178703  0.6036175835840609   F   F   F
  0.6736065938023827  0.8136752304929331  0.5946632811488968   F   F   F
  0.2167009164074400  0.6415980517601838  0.5385097621148773   F   F   F
  0.3687891183512946  0.7351277331247985  0.4592092972079129   F   F   F
  0.7974395885475403  0.8885931526219295  0.5957078170637757   F   F   F
  0.8798036746064781  0.9123005792569572  0.5119932402577447   F   F   F
  0.5763844113515972  0.5745727690282507  0.5119755844559535   F   F   F
  0.5898879995823378  0.1155406382799171  0.5251964453528331   F   F   F
  0.8581223411646519  0.1521132321647087  0.4951759473310489   F   F   F
  0.8354339586433213  0.6036190546247369  0.6458936006576721   F   F   F
  0.1337385207486648  0.3603189034452470  0.3568722791356791   F   F   F
  0.7906552882913616  0.2799392454557648  0.4418726542293072   F   F   F
  0.3991760967689615  0.1774948437530099  0.3960031981861079   F   F   F
  0.8560113132286773  0.7501270034440282  0.5965402086345790   F   F   F
  0.2833070918287817  0.9346928161394956  0.5493212001279772   F   F   F
  0.0230747322536402  0.3304475144031116  0.5022455100715746   F   F   F
  0.5745593847912573  0.6954900807820579  0.4355643604055430   F   F   F
  0.2302409542041772  0.7526004963776103  0.4519695445397645   F   F   F
  0.5937095881507943  0.2839103853186344  0.5481903679332092   F   F   F
  0.9751821109843988  0.2723200999102318  0.6026376274703580   F   F   F
  0.8889063590224922  0.0254089987032842  0.4242001869335610   F   F   F
  0.1046802060357805  0.1954605670473128  0.5177493967808644   F   F   F
  0.0481456608521569  0.7330370932417907  0.4826301941714348   F   F   F
  0.2319392243258065  0.2057851917465356  0.5610201223559841   F   F   F
  0.5614078070497825  0.2577852695391769  0.3812261074005363   F   F   F
  0.4763423647582670  0.6284668761019461  0.6216827152081308   F   F   F
  0.2814788872374763  0.7704731952791377  0.5975082886257042   F   F   F
  0.2085008252580423  0.6433998443080498  0.3717945352858223   F   F   F
  0.7403923026504771  0.7109514519009039  0.5358171419069819   F   F   F
  0.9865857397820648  0.9906156502458572  0.5503684498708878   F   F   F
  0.7031045577904180  0.7368181529665634  0.4342603982179796   F   F   F
  0.7879081579966609  0.0594768607787373  0.5767790695981319   F   F   F
  0.4563138979678243  0.3284515948311224  0.4092878915485585   F   F   F
  0.4495080939843064  0.9365582806320703  0.5943627543622654   F   F   F
  0.5085094732023023  0.0414255060435806  0.5861042594180006   F   F   F
  0.2442471516429308  0.3704063236853941  0.4209471039025985   F   F   F
  0.6585253436744694  0.3300021106527140  0.4503479098948588   F   F   F
  0.4602627713948095  0.3183995555237971  0.5289625620151455   F   F   F
  0.3372993678081997  0.5899425415699397  0.3990830096962270   F   F   F
  0.8031893182239784  0.4764365793727166  0.5797687702806087   F   F   F
  0.0692097893475037  0.8988591555082337  0.4805055068825652   F   F   F
  0.2119075788177369  0.1444543211161857  0.3735965933534686   F   F   F
  0.0782328565913559  0.4939849948658406  0.4946876202126234   F   F   F
  0.5575701889191933  0.8523400984338849  0.4747302534090920   F   F   F
  0.7183163754821180  0.5848577125504306  0.6094825121501231   F   F   F
  0.2866421241915660  0.2101017383532309  0.4591107728955208   F   F   F
  0.0881527667268287  0.6255465650294880  0.5675970923790601   F   F   F
  0.3534685756231042  0.0195841174414113  0.5779581865498642   F   F   F
  0.4874041360261572  0.4805821908626200  0.5732030640498706   F   F   F
  0.4849364485608589  0.4991756004783526  0.6931328970002106   T   T   T

  0.00000000E+00  0.00000000E+00  0.00000000E+00
  0.00000000E+00  0.00000000E+00  0.00000000E+00
  0.00000000E+00  0.00000000E+00  0.00000000E+00
  0.00000000E+00  0.00000000E+00  0.00000000E+00
  0.00000000E+00  0.00000000E+00  0.00000000E+00
  0.00000000E+00  0.00000000E+00  0.00000000E+00
  0.00000000E+00  0.00000000E+00  0.00000000E+00
  0.00000000E+00  0.00000000E+00  0.00000000E+00
  0.00000000E+00  0.00000000E+00  0.00000000E+00
  0.00000000E+00  0.00000000E+00  0.00000000E+00
  0.00000000E+00  0.00000000E+00  0.00000000E+00
  0.00000000E+00  0.00000000E+00  0.00000000E+00
  0.00000000E+00  0.00000000E+00  0.00000000E+00
  0.00000000E+00  0.00000000E+00  0.00000000E+00
  0.00000000E+00  0.00000000E+00  0.00000000E+00
  0.00000000E+00  0.00000000E+00  0.00000000E+00
  0.00000000E+00  0.00000000E+00  0.00000000E+00
  0.00000000E+00  0.00000000E+00  0.00000000E+00
  0.00000000E+00  0.00000000E+00  0.00000000E+00
  0.00000000E+00  0.00000000E+00  0.00000000E+00
  0.00000000E+00  0.00000000E+00  0.00000000E+00
  0.00000000E+00  0.00000000E+00  0.00000000E+00
  0.00000000E+00  0.00000000E+00  0.00000000E+00
  0.00000000E+00  0.00000000E+00  0.00000000E+00
  0.00000000E+00  0.00000000E+00  0.00000000E+00
  0.00000000E+00  0.00000000E+00  0.00000000E+00
  0.00000000E+00  0.00000000E+00  0.00000000E+00
  0.00000000E+00  0.00000000E+00  0.00000000E+00
  0.00000000E+00  0.00000000E+00  0.00000000E+00
  0.00000000E+00  0.00000000E+00  0.00000000E+00
  0.00000000E+00  0.00000000E+00  0.00000000E+00
  0.00000000E+00  0.00000000E+00  0.00000000E+00
  0.00000000E+00  0.00000000E+00  0.00000000E+00
  0.00000000E+00  0.00000000E+00  0.00000000E+00
  0.00000000E+00  0.00000000E+00  0.00000000E+00
  0.00000000E+00  0.00000000E+00  0.00000000E+00
  0.00000000E+00  0.00000000E+00  0.00000000E+00
  0.00000000E+00  0.00000000E+00  0.00000000E+00
  0.00000000E+00  0.00000000E+00  0.00000000E+00
  0.00000000E+00  0.00000000E+00  0.00000000E+00
  0.00000000E+00  0.00000000E+00  0.00000000E+00
  0.00000000E+00  0.00000000E+00  0.00000000E+00
  0.00000000E+00  0.00000000E+00  0.00000000E+00
  0.00000000E+00  0.00000000E+00  0.00000000E+00
  0.00000000E+00  0.00000000E+00  0.00000000E+00
  0.00000000E+00  0.00000000E+00  0.00000000E+00
  0.00000000E+00  0.00000000E+00  0.00000000E+00
  0.00000000E+00  0.00000000E+00  0.00000000E+00
  0.00000000E+00  0.00000000E+00  0.00000000E+00
  0.00000000E+00  0.00000000E+00  0.00000000E+00
  0.00000000E+00  0.00000000E+00  0.00000000E+00
  0.00000000E+00  0.00000000E+00  0.00000000E+00
  0.00000000E+00  0.00000000E+00  0.00000000E+00
  0.00000000E+00  0.00000000E+00  0.00000000E+00
  0.00000000E+00  0.00000000E+00  0.00000000E+00
  0.00000000E+00  0.00000000E+00  0.00000000E+00
  0.00000000E+00  0.00000000E+00  0.00000000E+00
  0.00000000E+00  0.00000000E+00  0.00000000E+00
  0.00000000E+00  0.00000000E+00  0.00000000E+00
  0.00000000E+00  0.00000000E+00  0.00000000E+00
  0.00000000E+00  0.00000000E+00  0.00000000E+00
  0.00000000E+00  0.00000000E+00  0.00000000E+00
  0.00000000E+00  0.00000000E+00  0.00000000E+00
  0.00000000E+00  0.00000000E+00  0.00000000E+00
  0.00000000E+00  0.00000000E+00  0.00000000E+00
  0.00000000E+00  0.00000000E+00  0.00000000E+00
  0.00000000E+00  0.00000000E+00  0.00000000E+00
  0.00000000E+00  0.00000000E+00  0.00000000E+00
  0.00000000E+00  0.00000000E+00  0.00000000E+00
  0.00000000E+00  0.00000000E+00  0.00000000E+00
  0.00000000E+00  0.00000000E+00  0.00000000E+00
  0.00000000E+00  0.00000000E+00  0.00000000E+00
  0.00000000E+00  0.00000000E+00  0.00000000E+00
  0.00000000E+00  0.00000000E+00  0.00000000E+00
  0.00000000E+00  0.00000000E+00  0.00000000E+00
  0.00000000E+00  0.00000000E+00  0.00000000E+00
  0.00000000E+00  0.00000000E+00  0.00000000E+00
  0.00000000E+00  0.00000000E+00  0.00000000E+00
  0.00000000E+00  0.00000000E+00  0.00000000E+00
  0.00000000E+00  0.00000000E+00  0.00000000E+00
  0.00000000E+00  0.00000000E+00  0.00000000E+00
  0.00000000E+00  0.00000000E+00  0.00000000E+00
  0.00000000E+00  0.00000000E+00  0.00000000E+00
  0.00000000E+00  0.00000000E+00  0.00000000E+00
  0.00000000E+00  0.00000000E+00  0.00000000E+00
  0.00000000E+00  0.00000000E+00  0.00000000E+00
  0.00000000E+00  0.00000000E+00  0.00000000E+00
  0.00000000E+00  0.00000000E+00  0.00000000E+00
  0.00000000E+00  0.00000000E+00  0.00000000E+00
  0.00000000E+00  0.00000000E+00  0.00000000E+00
  0.00000000E+00  0.00000000E+00  0.00000000E+00
  0.00000000E+00  0.00000000E+00  0.00000000E+00
  0.00000000E+00  0.00000000E+00  0.00000000E+00
  0.00000000E+00  0.00000000E+00  0.00000000E+00
  0.00000000E+00  0.00000000E+00  0.00000000E+00
  0.00000000E+00  0.00000000E+00  0.00000000E+00
  0.00000000E+00  0.00000000E+00  0.00000000E+00
  0.00000000E+00  0.00000000E+00  0.00000000E+00
  0.00000000E+00  0.00000000E+00  0.00000000E+00
  0.00000000E+00  0.00000000E+00  0.00000000E+00
  0.00000000E+00  0.00000000E+00  0.00000000E+00
  0.00000000E+00  0.00000000E+00  0.00000000E+00
  0.00000000E+00  0.00000000E+00  0.00000000E+00
  0.00000000E+00  0.00000000E+00  0.00000000E+00
  0.00000000E+00  0.00000000E+00  0.00000000E+00
  0.00000000E+00  0.00000000E+00  0.00000000E+00
  0.00000000E+00  0.00000000E+00  0.00000000E+00
  0.00000000E+00  0.00000000E+00  0.00000000E+00
  0.00000000E+00  0.00000000E+00  0.00000000E+00
  0.00000000E+00  0.00000000E+00  0.00000000E+00
  0.00000000E+00  0.00000000E+00  0.00000000E+00
  0.00000000E+00  0.00000000E+00  0.00000000E+00
  0.00000000E+00  0.00000000E+00  0.00000000E+00
  0.00000000E+00  0.00000000E+00  0.00000000E+00
  0.00000000E+00  0.00000000E+00  0.00000000E+00
  0.00000000E+00  0.00000000E+00  0.00000000E+00
  0.00000000E+00  0.00000000E+00  0.00000000E+00
  0.00000000E+00  0.00000000E+00  0.00000000E+00
  0.00000000E+00  0.00000000E+00  0.00000000E+00
  0.00000000E+00  0.00000000E+00  0.00000000E+00
  0.00000000E+00  0.00000000E+00  0.00000000E+00
  0.00000000E+00  0.00000000E+00  0.00000000E+00
  0.00000000E+00  0.00000000E+00  0.00000000E+00
  0.00000000E+00  0.00000000E+00  0.00000000E+00
  0.00000000E+00  0.00000000E+00  0.00000000E+00
  0.00000000E+00  0.00000000E+00  0.00000000E+00
  0.00000000E+00  0.00000000E+00  0.00000000E+00
  0.00000000E+00  0.00000000E+00  0.00000000E+00
  0.00000000E+00  0.00000000E+00  0.00000000E+00
  0.00000000E+00  0.00000000E+00  0.00000000E+00
  0.00000000E+00  0.00000000E+00  0.00000000E+00
  0.00000000E+00  0.00000000E+00  0.00000000E+00
  0.00000000E+00  0.00000000E+00  0.00000000E+00
  0.00000000E+00  0.00000000E+00  0.00000000E+00
  0.00000000E+00  0.00000000E+00  0.00000000E+00
  0.00000000E+00  0.00000000E+00  0.00000000E+00
  0.00000000E+00  0.00000000E+00  0.00000000E+00
  0.00000000E+00  0.00000000E+00  0.00000000E+00
  0.00000000E+00  0.00000000E+00  0.00000000E+00
  0.00000000E+00  0.00000000E+00  0.00000000E+00
  0.00000000E+00  0.00000000E+00  0.00000000E+00
  0.00000000E+00  0.00000000E+00  0.00000000E+00
  0.00000000E+00  0.00000000E+00  0.00000000E+00
  0.00000000E+00  0.00000000E+00  0.00000000E+00
  0.00000000E+00  0.00000000E+00  0.00000000E+00
  0.00000000E+00  0.00000000E+00  0.00000000E+00
  0.00000000E+00  0.00000000E+00  0.00000000E+00
  0.00000000E+00  0.00000000E+00  0.00000000E+00
  0.00000000E+00  0.00000000E+00  0.00000000E+00
  0.00000000E+00  0.00000000E+00  0.00000000E+00
  0.00000000E+00  0.00000000E+00  0.00000000E+00
  0.00000000E+00  0.00000000E+00  0.00000000E+00
  0.00000000E+00  0.00000000E+00  0.00000000E+00
  0.00000000E+00  0.00000000E+00  0.00000000E+00
  0.00000000E+00  0.00000000E+00  0.00000000E+00
  0.00000000E+00  0.00000000E+00  0.00000000E+00
  0.00000000E+00  0.00000000E+00  0.00000000E+00
  0.00000000E+00  0.00000000E+00  0.00000000E+00
  0.00000000E+00  0.00000000E+00  0.00000000E+00
  0.00000000E+00  0.00000000E+00  0.00000000E+00
  0.00000000E+00  0.00000000E+00  0.00000000E+00
  0.00000000E+00  0.00000000E+00  0.00000000E+00
  0.00000000E+00  0.00000000E+00  0.00000000E+00
  0.00000000E+00  0.00000000E+00  0.00000000E+00
  0.00000000E+00  0.00000000E+00  0.00000000E+00
  0.00000000E+00  0.00000000E+00  0.00000000E+00
  0.00000000E+00  0.00000000E+00  0.00000000E+00
  0.00000000E+00  0.00000000E+00  0.00000000E+00
  0.00000000E+00  0.00000000E+00  0.00000000E+00
  0.00000000E+00  0.00000000E+00  0.00000000E+00
  0.00000000E+00  0.00000000E+00  0.00000000E+00
  0.00000000E+00  0.00000000E+00  0.00000000E+00
  0.00000000E+00  0.00000000E+00  0.00000000E+00
  0.00000000E+00  0.00000000E+00  0.00000000E+00
  0.00000000E+00  0.00000000E+00  0.00000000E+00
  0.00000000E+00  0.00000000E+00  0.00000000E+00
  0.00000000E+00  0.00000000E+00  0.00000000E+00
  0.00000000E+00  0.00000000E+00  0.00000000E+00
  0.00000000E+00  0.00000000E+00  0.00000000E+00
  0.00000000E+00  0.00000000E+00  0.00000000E+00
  0.00000000E+00  0.00000000E+00  0.00000000E+00
  0.00000000E+00  0.00000000E+00  0.00000000E+00
  0.00000000E+00  0.00000000E+00  0.00000000E+00
  0.00000000E+00  0.00000000E+00  0.00000000E+00
  0.00000000E+00  0.00000000E+00  0.00000000E+00
  0.00000000E+00  0.00000000E+00  0.00000000E+00
  0.00000000E+00  0.00000000E+00  0.00000000E+00
  0.00000000E+00  0.00000000E+00  0.00000000E+00
  0.00000000E+00  0.00000000E+00  0.00000000E+00
  0.00000000E+00  0.00000000E+00  0.00000000E+00
  0.00000000E+00  0.00000000E+00  0.00000000E+00
  0.00000000E+00  0.00000000E+00  0.00000000E+00
  0.00000000E+00  0.00000000E+00  0.00000000E+00
  0.00000000E+00  0.00000000E+00  0.00000000E+00
  0.00000000E+00  0.00000000E+00  0.00000000E+00
  0.00000000E+00  0.00000000E+00  0.00000000E+00
  0.00000000E+00  0.00000000E+00  0.00000000E+00
  0.00000000E+00  0.00000000E+00  0.00000000E+00
  0.00000000E+00  0.00000000E+00  0.00000000E+00
  0.00000000E+00  0.00000000E+00  0.00000000E+00
  0.00000000E+00  0.00000000E+00  0.00000000E+00
  0.00000000E+00  0.00000000E+00  0.00000000E+00