 C  H  O Si  W                          
   1.0000000000000000     
    23.4112945954000011    0.0000000000000000    0.0000000000000000
     0.0000000000000000   18.1212369513999967    0.0000000000000000
     0.0000000000000000    0.0000000000000000   26.8833665072999999
   C    H    O    Si   W 
     4    52   155    65     1
Selective dynamics
Direct
  0.4839706218105445  0.6039827325903704  0.7842576471400446   T   T   T
  0.5221326642225927  0.5517357147404206  0.7995505113808519   T   T   T
  0.4999178004018835  0.6845567591330596  0.7794212806482981   T   T   T
  0.5097347492667114  0.4740812683694695  0.8154889315518067   T   T   T
  0.7617267603972103  0.1593580870232541  0.6511476423499609   T   T   T
  0.9264276758775409  0.3338528337127542  0.3563349293400009   F   F   F
  0.7933396966928186  0.2624627681135010  0.3734565163880745   F   F   F
  0.9745391127316694  0.9987924714271159  0.3253027906056829   F   F   F
  0.6257326647787878  0.0186567208635822  0.3752311999972449   F   F   F
  0.8205383986272707  0.0501905344676175  0.3689926296547128   F   F   F
  0.7499930738495308  0.1963626267206990  0.4580381926778543   F   F   F
  0.9154971782167878  0.3046324964238677  0.5095334016463374   T   T   T
  0.5834928632816769  0.3594474171037163  0.3059271726651787   F   F   F
  0.8919340139342437  0.3903351819193295  0.6162487473838801   T   T   T
  0.5930490282480355  0.4163958925594474  0.6141539982745811   T   T   T
  0.5934894034031483  0.9266540742042964  0.5779857968327877   T   T   T
  0.0336003275779094  0.3935697010690785  0.6520431210222177   T   T   T
  0.9352705076763712  0.4746980966241665  0.4541014552468710   F   F   F
  0.7461383787735159  0.5854958633044873  0.4224881911837883   F   F   F
  0.7996794473831356  0.4401616748970902  0.6361153497308764   T   T   T
  0.5911020174091490  0.6238666975949343  0.3780347436188976   F   F   F
  0.7184337867802384  0.7011166566873683  0.3834605945055571   F   F   F
  0.8411529142292764  0.5976104669426832  0.4195961671555111   F   F   F
  0.0047645486475076  0.6589820201033589  0.3577783004107076   F   F   F
  0.8283586993267491  0.7675405442855592  0.4679422553080954   F   F   F
  0.8724040217357463  0.6508392355197454  0.7231846367101191   T   T   T
  0.5199903139612303  0.0407486324352746  0.4217030704774842   F   F   F
  0.2230945721612159  0.0353387060675061  0.3932050219465495   F   F   F
  0.2163736907482345  0.2930353288766483  0.3192303272980936   F   F   F
  0.1575010503616241  0.3849901008808416  0.2789829167401123   F   F   F
  0.3415468765692253  0.2107695764228765  0.3307727584112428   F   F   F
  0.2227158616647102  0.1009427968968666  0.3227384335196248   F   F   F
  0.5116052853147928  0.8791603986343675  0.5467163241988475   T   T   T
  0.3821597283077777  0.2974556563982578  0.6471644488802627   T   T   T
  0.2450418063955429  0.1475712689929195  0.5977377189224522   T   T   T
  0.3153809713091036  0.5423203354474069  0.4424346656312608   F   F   F
  0.4089561837294582  0.4939187295607681  0.4056905975982730   F   F   F
  0.3984995032241372  0.8482974785238113  0.3887867966224334   F   F   F
  0.2442023571188656  0.7106139496515027  0.2943268807443218   F   F   F
  0.3117413815567005  0.4736595844105480  0.3692576443915385   F   F   F
  0.4054742948844066  0.6394635243379412  0.3388198885480591   F   F   F
  0.1393576205880507  0.5431575174532881  0.3519294596467617   F   F   F
  0.5932693451318087  0.7531709992981845  0.3523979868156601   F   F   F
  0.4690068301459220  0.9166113401117428  0.4438283837725479   F   F   F
  0.1213750711015554  0.3789691391438204  0.6117388751519305   T   T   T
  0.0728461458388053  0.7194881422433402  0.6462250577175314   T   T   T
  0.2429686007458574  0.4397446645827467  0.6821545362442916   T   T   T
  0.2446699995321720  0.8714316568917008  0.6689964640301778   T   T   T
  0.4384834760839184  0.5896671429444695  0.7832902264893691   T   T   T
  0.5670326644033966  0.5683371452991262  0.8019729324408917   T   T   T
  0.4881849506996660  0.7138876980952238  0.8138994705927127   T   T   T
  0.5462134114526264  0.6910868264399582  0.7738516208781612   T   T   T
  0.4774281181254443  0.7110448026547853  0.7484140499842319   T   T   T
  0.5212547672665523  0.4683271461656767  0.8551460705397581   T   T   T
  0.4648271278864292  0.4589097891656321  0.8102306647097377   T   T   T
  0.5367609589155766  0.4350714954286246  0.7947047048878437   T   T   T
  0.3689417337945073  0.7035389682943389  0.4390000177989322   F   F   F
  0.3468156499810249  0.5592177388212036  0.4203881275781143   F   F   F
  0.8616122947706668  0.6196171311981088  0.6955008797546021   T   T   T
  0.3490211563543494  0.0104370606899117  0.5303960412854148   T   T   T
  0.0331374155942931  0.9872328767810037  0.5284998175761561   T   T   T
  0.6363554822990451  0.1340524164338248  0.4893766723794641   F   F   F
  0.0686461464807948  0.1074492923483774  0.3951107345583225   F   F   F
  0.4518995424319527  0.1847461957030774  0.4205972814427668   F   F   F
  0.8058841492861291  0.2688340505656726  0.4831666074103040   F   F   F
  0.9739577863904274  0.2368504738776951  0.5985796378993306   T   T   T
  0.2747652928840907  0.3543567418839473  0.4485122250900346   F   F   F
  0.5563541661963498  0.8302751620519331  0.4417510122690658   F   F   F
  0.3924901122606178  0.0244766448361935  0.6193608511509495   T   T   T
  0.1775172398589788  0.4051523202028378  0.4052731245300478   F   F   F
  0.8667112094513374  0.7398662173363242  0.6375783857759117   T   T   T
  0.8656960102276017  0.0223608029513613  0.4670384592975196   F   F   F
  0.3010471365896024  0.8161207057481050  0.4579252567998537   F   F   F
  0.4216109456219570  0.3164360878886967  0.3795963030273342   F   F   F
  0.8109907270906640  0.5202344245022942  0.5200762802231548   T   T   T
  0.9839279915008553  0.1273489303687870  0.5210050023219771   T   T   T
  0.5181695179912506  0.5148070531280211  0.6226730744946684   T   T   T
  0.0345364061182565  0.9751316325257804  0.4294052572495062   F   F   F
  0.9630365419446250  0.3583791788177777  0.3512576249606170   F   F   F
  0.0696266904488567  0.3912896364040606  0.3763717815531962   F   F   F
  0.2082956575310035  0.7838281650694796  0.3953601014000157   F   F   F
  0.0389012629134911  0.4742857864535068  0.4991087535393461   F   F   F
  0.2388926515404339  0.3407154367554493  0.5882445815567965   T   T   T
  0.3960853830615362  0.2474021609846803  0.6433654076960942   T   T   T
  0.4546888006154038  0.6157188813859792  0.5814164873076462   T   T   T
  0.9102172056655864  0.8042759785843187  0.5576324518924938   T   T   T
  0.8691272713299156  0.1632272132326307  0.4422783307318099   F   F   F
  0.5725767945756743  0.7225157237400168  0.3761317316733468   F   F   F
  0.1424265590957958  0.2143093696871006  0.3759722435750490   F   F   F
  0.3496713167736005  0.8219713203873601  0.6067183709670574   T   T   T
  0.9109960497951874  0.9002314422992441  0.4831796236075121   F   F   F
  0.0613380104910135  0.5920555767069899  0.4422534820284341   F   F   F
  0.7083390277084121  0.6103504227204866  0.4199576800001736   F   F   F
  0.0754872572765848  0.8719906757681031  0.4829941554854784   F   F   F
  0.7004647711973604  0.8827395858851332  0.4326352913293690   F   F   F
  0.7302116063026418  0.1043777950232688  0.5429718309728979   T   T   T
  0.9189012972036290  0.3566819466021388  0.6320483375005816   T   T   T
  0.7350744635061979  0.9073877329574443  0.6129179653826402   T   T   T
  0.6251219543867705  0.5825778729354099  0.4863787091564404   F   F   F
  0.5565732987385132  0.6848869112572515  0.4672494240254110   F   F   F
  0.4263025645977194  0.2998886033244887  0.5548044106363886   T   T   T
  0.9782900938336425  0.7834275044788441  0.4767956400891720   F   F   F
  0.6543160297315376  0.6501741536736743  0.6336501550974567   T   T   T
  0.3970799144359791  0.7998056224690101  0.5158843256026804   T   T   T
  0.6026900685395375  0.5728493226453395  0.3856709925442061   F   F   F
  0.7195390725295817  0.6866842132661827  0.5572009643757651   T   T   T
  0.1463016515776135  0.4204633157411514  0.6190104522500648   T   T   T
  0.0660185995128739  0.6033750960027326  0.5420461069598239   T   T   T
  0.8183857840072228  0.9395787453788899  0.5362572207531413   T   T   T
  0.8282155306614527  0.4105690135976232  0.4519033357708793   F   F   F
  0.5276601946781900  0.3530984373354266  0.5319559135614421   T   T   T
  0.7370360064353261  0.5549248348477186  0.5953004004416869   T   T   T
  0.5574339360995921  0.2276149760508730  0.3949085375269945   F   F   F
  0.8059640829904495  0.3115964413438661  0.3832928600033014   F   F   F
  0.2374462167629616  0.0084346213459412  0.5079195554207132   F   F   F
  0.6929556862988984  0.8316779336296778  0.5411886895651024   T   T   T
  0.9233918770188764  0.0051203887365352  0.5528598108535098   T   T   T
  0.5257372223541736  0.3729649904546406  0.3985559351687087   F   F   F
  0.4690350641066326  0.0418950965074944  0.5462742892931771   T   T   T
  0.8379290752243361  0.1498842715360541  0.5397064430700046   T   T   T
  0.5379032530424510  0.1716013601855622  0.4862370923690094   F   F   F
  0.3501934425152129  0.2417926033060667  0.4396363938456389   F   F   F
  0.0117603228167908  0.0175977707736195  0.3352437574830063   F   F   F
  0.4649401684468940  0.6327666769755461  0.6760073827566833   T   T   T
  0.6549652215522386  0.9805813751821333  0.3792282539811964   F   F   F
  0.0762933429470323  0.7412101282781052  0.4358810225764742   F   F   F
  0.4514219709660572  0.4581023390247245  0.5526271621208408   T   T   T
  0.7192194366265099  0.7556047222177824  0.3795829994963285   F   F   F
  0.4467851159452680  0.7542013556218806  0.6041178283349744   T   T   T
  0.7525510591055777  0.7645084462755065  0.4762954835743187   F   F   F
  0.7797816992038061  0.1760816933251674  0.6207236114647269   T   T   T
  0.9932746155468877  0.3631973442958980  0.4484029789284989   F   F   F
  0.5307813766474254  0.5626691855957091  0.5267806590943422   T   T   T
  0.8167775852155614  0.5542456053436879  0.4234422052650615   F   F   F
  0.2362799664634995  0.1992940465822359  0.6045625707128343   T   T   T
  0.2035333057163413  0.8858851869526987  0.4705336293601903   F   F   F
  0.2398746030438090  0.6139614424391612  0.5226068397218273   T   T   T
  0.0609110872333548  0.6803732981997791  0.6239685208068591   T   T   T
  0.0460740722049948  0.6575305630493702  0.3541786312221902   F   F   F
  0.8006143395997346  0.0335807225741074  0.6055104541382076   T   T   T
  0.5379909097114037  0.0828813626538434  0.4045027517534763   F   F   F
  0.6064448660948649  0.3674944513110812  0.6049586102284098   T   T   T
  0.8615461075340960  0.0592647203656895  0.3692063291070653   F   F   F
  0.0949113079819810  0.2042067062767075  0.4670823258906296   F   F   F
  0.1716489588520034  0.2592008477026142  0.5305266349348953   T   T   T
  0.6409886548841044  0.7596225911080339  0.4548155821771758   F   F   F
  0.4367877834064799  0.4649523517738814  0.3864132536704119   F   F   F
  0.5744671838054733  0.1119317216747792  0.5707189220191983   T   T   T
  0.1514377462021059  0.6485918943738085  0.3889583608347777   F   F   F
  0.2677397900769023  0.6575214022950391  0.3923062966030031   F   F   F
  0.4402584600309112  0.3773820531868708  0.4703244327181508   F   F   F
  0.2380096658898907  0.2136950002304303  0.4299011866524154   F   F   F
  0.0732143953704911  0.2042957052876778  0.5622359840306360   T   T   T
  0.8451513223436727  0.6008218299238379  0.5987522321974077   T   T   T
  0.6211794284267498  0.3351237474733182  0.4109054511829981   F   F   F
  0.6026669933739228  0.9467105367042734  0.4672234595428861   F   F   F
  0.0313853912181870  0.2504736999951049  0.3889918752683101   F   F   F
  0.6071711812151771  0.2500734834286396  0.5477865002404474   T   T   T
  0.1327997263300347  0.9935385154496430  0.4794870772378772   F   F   F
  0.0798553773214273  0.3351666699026482  0.5121320917654246   T   T   T
  0.3731842192217937  0.1566665338876908  0.5677372409747561   T   T   T
  0.0662500938748295  0.7515764744337730  0.5356143298660271   T   T   T
  0.6664883802866157  0.4705687484731200  0.4300115561107631   F   F   F
  0.7997079483138768  0.7843900067628583  0.5641224328243450   T   T   T
  0.7038385586134339  0.0123923042067915  0.4701845621740759   F   F   F
  0.5968023178830270  0.6863320100285918  0.5536337554815344   T   T   T
  0.7228402998664549  0.3488685249886743  0.4516681052539582   F   F   F
  0.9771612099230231  0.3695979484257920  0.5470741977508136   T   T   T
  0.1579045305543717  0.6849462594231944  0.5705587205801644   T   T   T
  0.6333338448107071  0.3819669501739185  0.5078007023299378   F   F   F
  0.8207037491312684  0.4532349760141872  0.6062757131391933   T   T   T
  0.9585781980894978  0.0824269152768693  0.4169530046787955   F   F   F
  0.2822820097512682  0.2508373662775013  0.5185959879778408   T   T   T
  0.2492575497532457  0.4982167600544329  0.4610556955705079   F   F   F
  0.2709754195046655  0.9038327755579540  0.5679735005172438   T   T   T
  0.2036681493187373  0.7407570403557955  0.4868887178860462   F   F   F
  0.1471234534495878  0.5312537475793775  0.4925449251270066   F   F   F
  0.2249604220764668  0.4778815966221123  0.5566201837867271   T   T   T
  0.9114169782859136  0.5079284690934998  0.4737188145108959   F   F   F
  0.8697881761182842  0.7597439814306668  0.4641535209108483   F   F   F
  0.7381202078118392  0.1480184894441194  0.4452296472671975   F   F   F
  0.2221834364607460  0.9849650607116089  0.4079468165165281   F   F   F
  0.2518581121815867  0.4576351775731426  0.6491126532519023   T   T   T
  0.6306288636505220  0.9388035903554561  0.5931841131735548   T   T   T
  0.4102232653459481  0.8442462629143677  0.4234373851432949   F   F   F
  0.9177713527308597  0.2512221645748909  0.5082451459005242   F   F   F
  0.1325470584190001  0.4987199847418253  0.3322726622007863   F   F   F
  0.1551476808853849  0.3587071261215939  0.3105604161752922   F   F   F
  0.3730051452693530  0.1860909141715439  0.3479534200993726   F   F   F
  0.0346206902209699  0.3479293578448437  0.6332062773079081   T   T   T
  0.5726892607782261  0.3120520622941427  0.3200996781806822   F   F   F
  0.2445791485907894  0.8258527236304087  0.6500946729860291   T   T   T
  0.2073742988973706  0.7035889206128445  0.3103690611938177   F   F   F
  0.2753744117793318  0.4473751699592938  0.3673758273212613   F   F   F
  0.3653508124869589  0.6527705030914746  0.3422207943191111   F   F   F
  0.2263808502218509  0.1113646949552844  0.3581188824802055   F   F   F
  0.2412033350308818  0.2512620985375591  0.3293429668079639   F   F   F
  0.5012729261715734  0.9474854927868890  0.4548416832162587   F   F   F
  0.5504797208492731  0.8825224403077927  0.5342363527633822   T   T   T
  0.5449237260259128  0.7041194238290901  0.6342745108657009   T   T   T
  0.4784682550816877  0.1744922186322636  0.5954981979537628   T   T   T
  0.2620957073640712  0.7489439006133364  0.5690271340648371   T   T   T
  0.4442780074033100  0.8982697915335246  0.5827896664287144   T   T   T
  0.7659725571183470  0.6726803605720082  0.6494077686642710   T   T   T
  0.8449690254416281  0.8872833657660674  0.6226156868680375   T   T   T
  0.6395636487593488  0.7949040417373511  0.6201466795173246   T   T   T
  0.0078840099044875  0.0883162002309718  0.6030034144640612   T   T   T
  0.2853124741155205  0.0555630389357014  0.5936196339350588   T   T   T
  0.5042383281251357  0.0246175006637593  0.6286791078221683   T   T   T
  0.5763944506704241  0.5294907179445006  0.7118556105697103   T   T   T
  0.4647770219708910  0.4666328095788745  0.7131370984884186   T   T   T
  0.0832252792583148  0.6616041716390058  0.4064130837160320   F   F   F
  0.4090121453018647  0.8174517224892087  0.5758439226797692   T   T   T
  0.8417638189676637  0.4966369860369753  0.4678389696388976   F   F   F
  0.0170894936830805  0.0456659097568490  0.3936113541928137   F   F   F
  0.0147002066459194  0.3393741445575031  0.3910814136036507   F   F   F
  0.0095110532305250  0.1698290209845829  0.5723442714256611   T   T   T
  0.6094252177045240  0.7126431383399182  0.6107551460818323   T   T   T
  0.2139712721859751  0.5310857412344158  0.5096995540857217   T   T   T
  0.9150621278077509  0.8107448082659801  0.4962545438487922   F   F   F
  0.5205785424995497  0.1656394969314334  0.4259865881079392   F   F   F
  0.4186977658917127  0.2220870071845366  0.5883371696313446   T   T   T
  0.0834525281692322  0.1943559478997372  0.4069808717903314   F   F   F
  0.7018979345349692  0.1000301253312159  0.4873230277072054   F   F   F
  0.6650593546526977  0.9532213343124241  0.4374764361266443   F   F   F
  0.6500987440092842  0.5592109279009350  0.4301508871204760   F   F   F
  0.1984606475676856  0.9676661022331814  0.4639906909803457   F   F   F
  0.2141101398269099  0.4219167046330452  0.6034005937817013   T   T   T
  0.6735023376565242  0.8688009372829818  0.5943270011367741   T   T   T
  0.2163700193705391  0.6966519058222342  0.5386002583394732   T   T   T
  0.3687891183983183  0.7903116041479024  0.4592092972079129   F   F   F
  0.7972216304703479  0.9434546895560239  0.5953993606294138   T   T   T
  0.8794876002390010  0.9672791792928238  0.5119484948245806   T   T   T
  0.5755647494683503  0.6288598599198313  0.5112991048743308   T   T   T
  0.5897386253255079  0.1700763578461860  0.5253443526583188   T   T   T
  0.8581223412116756  0.2072971031878126  0.4951759473310489   F   F   F
  0.8358628849489637  0.6591390841031829  0.6455382471613741   T   T   T
  0.1337385207956885  0.4155027744683508  0.3568722791356791   F   F   F
  0.7906552883383853  0.3351231164788686  0.4418726542293072   F   F   F
  0.3991760968159852  0.2326787147761138  0.3960031981861079   F   F   F
  0.8562528215810608  0.8054279274389352  0.5965460842547122   T   T   T
  0.2828371121518488  0.9885142312156511  0.5494680287132352   T   T   T
  0.0230747323006639  0.3856313854262154  0.5022455100715746   F   F   F
  0.5745593848382811  0.7506739518051617  0.4355643604055430   F   F   F
  0.2302409542512009  0.8077843674007141  0.4519695445397645   F   F   F
  0.5938871407015691  0.3388305165926394  0.5482984949010047   T   T   T
  0.9752991882966449  0.3276309743439506  0.6025056433648903   T   T   T
  0.8889063590695159  0.0805928697263880  0.4242001869335610   F   F   F
  0.1048269438186951  0.2504315763828778  0.5177957534486237   T   T   T
  0.0481456608991806  0.7882209642648945  0.4826301941714348   F   F   F
  0.2320401020653766  0.2608519219536213  0.5609635558179834   T   T   T
  0.5614078070968063  0.3129691405622808  0.3812261074005363   F   F   F
  0.4776771211061283  0.6777579706991260  0.6233952635599551   T   T   T
  0.2805882941814618  0.8254294298932549  0.5978588617226408   T   T   T
  0.2085008253050660  0.6985837153311536  0.3717945352858223   F   F   F
  0.7405666150022192  0.7660542572760390  0.5358976623941575   T   T   T
  0.9863328596350651  0.0454756235435417  0.5503632843676917   T   T   T
  0.7031045578374417  0.7920020239896672  0.4342603982179796   F   F   F
  0.7880911915785705  0.1144738365386994  0.5766805987456568   T   T   T
  0.4563138980148480  0.3836354658542263  0.4092878915485585   F   F   F
  0.4506041238793330  0.9877547777929782  0.5947970496677291   T   T   T
  0.5089857123064074  0.0935137256267874  0.5858745100580472   T   T   T
  0.2442471516899545  0.4255901947084979  0.4209471039025985   F   F   F
  0.6585253437214931  0.3851859816758179  0.4503479098948588   F   F   F
  0.4603045920005971  0.3718240730022047  0.5287636591608952   T   T   T
  0.3372993678552234  0.6451264125930436  0.3990830096962270   F   F   F
  0.8034667546842891  0.5324483712261849  0.5796995011573209   T   T   T
  0.0692097893945274  0.9540430265313375  0.4805055068825652   F   F   F
  0.2119075788647606  0.1996381921392896  0.3735965933534686   F   F   F
  0.0782328566383796  0.5491688658889444  0.4946876202126234   F   F   F
  0.5575701889662170  0.9075239694569888  0.4747302534090920   F   F   F
  0.7184710410266738  0.6403184387855314  0.6098539761085411   T   T   T
  0.2866421242385897  0.2652856093763347  0.4591107728955208   F   F   F
  0.0877308524131358  0.6803998897377559  0.5678272978895750   T   T   T
  0.3543344089123471  0.0712592669668030  0.5780324694567526   T   T   T
  0.4859953296408104  0.5347408608933981  0.5694997575666272   T   T   T
  0.5061219292058866  0.5395925008852156  0.6917497088725120   T   T   T

  0.00000000E+00  0.00000000E+00  0.00000000E+00
  0.00000000E+00  0.00000000E+00  0.00000000E+00
  0.00000000E+00  0.00000000E+00  0.00000000E+00
  0.00000000E+00  0.00000000E+00  0.00000000E+00
  0.00000000E+00  0.00000000E+00  0.00000000E+00
  0.00000000E+00  0.00000000E+00  0.00000000E+00
  0.00000000E+00  0.00000000E+00  0.00000000E+00
  0.00000000E+00  0.00000000E+00  0.00000000E+00
  0.00000000E+00  0.00000000E+00  0.00000000E+00
  0.00000000E+00  0.00000000E+00  0.00000000E+00
  0.00000000E+00  0.00000000E+00  0.00000000E+00
  0.00000000E+00  0.00000000E+00  0.00000000E+00
  0.00000000E+00  0.00000000E+00  0.00000000E+00
  0.00000000E+00  0.00000000E+00  0.00000000E+00
  0.00000000E+00  0.00000000E+00  0.00000000E+00
  0.00000000E+00  0.00000000E+00  0.00000000E+00
  0.00000000E+00  0.00000000E+00  0.00000000E+00
  0.00000000E+00  0.00000000E+00  0.00000000E+00
  0.00000000E+00  0.00000000E+00  0.00000000E+00
  0.00000000E+00  0.00000000E+00  0.00000000E+00
  0.00000000E+00  0.00000000E+00  0.00000000E+00
  0.00000000E+00  0.00000000E+00  0.00000000E+00
  0.00000000E+00  0.00000000E+00  0.00000000E+00
  0.00000000E+00  0.00000000E+00  0.00000000E+00
  0.00000000E+00  0.00000000E+00  0.00000000E+00
  0.00000000E+00  0.00000000E+00  0.00000000E+00
  0.00000000E+00  0.00000000E+00  0.00000000E+00
  0.00000000E+00  0.00000000E+00  0.00000000E+00
  0.00000000E+00  0.00000000E+00  0.00000000E+00
  0.00000000E+00  0.00000000E+00  0.00000000E+00
  0.00000000E+00  0.00000000E+00  0.00000000E+00
  0.00000000E+00  0.00000000E+00  0.00000000E+00
  0.00000000E+00  0.00000000E+00  0.00000000E+00
  0.00000000E+00  0.00000000E+00  0.00000000E+00
  0.00000000E+00  0.00000000E+00  0.00000000E+00
  0.00000000E+00  0.00000000E+00  0.00000000E+00
  0.00000000E+00  0.00000000E+00  0.00000000E+00
  0.00000000E+00  0.00000000E+00  0.00000000E+00
  0.00000000E+00  0.00000000E+00  0.00000000E+00
  0.00000000E+00  0.00000000E+00  0.00000000E+00
  0.00000000E+00  0.00000000E+00  0.00000000E+00
  0.00000000E+00  0.00000000E+00  0.00000000E+00
  0.00000000E+00  0.00000000E+00  0.00000000E+00
  0.00000000E+00  0.00000000E+00  0.00000000E+00
  0.00000000E+00  0.00000000E+00  0.00000000E+00
  0.00000000E+00  0.00000000E+00  0.00000000E+00
  0.00000000E+00  0.00000000E+00  0.00000000E+00
  0.00000000E+00  0.00000000E+00  0.00000000E+00
  0.00000000E+00  0.00000000E+00  0.00000000E+00
  0.00000000E+00  0.00000000E+00  0.00000000E+00
  0.00000000E+00  0.00000000E+00  0.00000000E+00
  0.00000000E+00  0.00000000E+00  0.00000000E+00
  0.00000000E+00  0.00000000E+00  0.00000000E+00
  0.00000000E+00  0.00000000E+00  0.00000000E+00
  0.00000000E+00  0.00000000E+00  0.00000000E+00
  0.00000000E+00  0.00000000E+00  0.00000000E+00
  0.00000000E+00  0.00000000E+00  0.00000000E+00
  0.00000000E+00  0.00000000E+00  0.00000000E+00
  0.00000000E+00  0.00000000E+00  0.00000000E+00
  0.00000000E+00  0.00000000E+00  0.00000000E+00
  0.00000000E+00  0.00000000E+00  0.00000000E+00
  0.00000000E+00  0.00000000E+00  0.00000000E+00
  0.00000000E+00  0.00000000E+00  0.00000000E+00
  0.00000000E+00  0.00000000E+00  0.00000000E+00
  0.00000000E+00  0.00000000E+00  0.00000000E+00
  0.00000000E+00  0.00000000E+00  0.00000000E+00
  0.00000000E+00  0.00000000E+00  0.00000000E+00
  0.00000000E+00  0.00000000E+00  0.00000000E+00
  0.00000000E+00  0.00000000E+00  0.00000000E+00
  0.00000000E+00  0.00000000E+00  0.00000000E+00
  0.00000000E+00  0.00000000E+00  0.00000000E+00
  0.00000000E+00  0.00000000E+00  0.00000000E+00
  0.00000000E+00  0.00000000E+00  0.00000000E+00
  0.00000000E+00  0.00000000E+00  0.00000000E+00
  0.00000000E+00  0.00000000E+00  0.00000000E+00
  0.00000000E+00  0.00000000E+00  0.00000000E+00
  0.00000000E+00  0.00000000E+00  0.00000000E+00
  0.00000000E+00  0.00000000E+00  0.00000000E+00
  0.00000000E+00  0.00000000E+00  0.00000000E+00
  0.00000000E+00  0.00000000E+00  0.00000000E+00
  0.00000000E+00  0.00000000E+00  0.00000000E+00
  0.00000000E+00  0.00000000E+00  0.00000000E+00
  0.00000000E+00  0.00000000E+00  0.00000000E+00
  0.00000000E+00  0.00000000E+00  0.00000000E+00
  0.00000000E+00  0.00000000E+00  0.00000000E+00
  0.00000000E+00  0.00000000E+00  0.00000000E+00
  0.00000000E+00  0.00000000E+00  0.00000000E+00
  0.00000000E+00  0.00000000E+00  0.00000000E+00
  0.00000000E+00  0.00000000E+00  0.00000000E+00
  0.00000000E+00  0.00000000E+00  0.00000000E+00
  0.00000000E+00  0.00000000E+00  0.00000000E+00
  0.00000000E+00  0.00000000E+00  0.00000000E+00
  0.00000000E+00  0.00000000E+00  0.00000000E+00
  0.00000000E+00  0.00000000E+00  0.00000000E+00
  0.00000000E+00  0.00000000E+00  0.00000000E+00
  0.00000000E+00  0.00000000E+00  0.00000000E+00
  0.00000000E+00  0.00000000E+00  0.00000000E+00
  0.00000000E+00  0.00000000E+00  0.00000000E+00
  0.00000000E+00  0.00000000E+00  0.00000000E+00
  0.00000000E+00  0.00000000E+00  0.00000000E+00
  0.00000000E+00  0.00000000E+00  0.00000000E+00
  0.00000000E+00  0.00000000E+00  0.00000000E+00
  0.00000000E+00  0.00000000E+00  0.00000000E+00
  0.00000000E+00  0.00000000E+00  0.00000000E+00
  0.00000000E+00  0.00000000E+00  0.00000000E+00
  0.00000000E+00  0.00000000E+00  0.00000000E+00
  0.00000000E+00  0.00000000E+00  0.00000000E+00
  0.00000000E+00  0.00000000E+00  0.00000000E+00
  0.00000000E+00  0.00000000E+00  0.00000000E+00
  0.00000000E+00  0.00000000E+00  0.00000000E+00
  0.00000000E+00  0.00000000E+00  0.00000000E+00
  0.00000000E+00  0.00000000E+00  0.00000000E+00
  0.00000000E+00  0.00000000E+00  0.00000000E+00
  0.00000000E+00  0.00000000E+00  0.00000000E+00
  0.00000000E+00  0.00000000E+00  0.00000000E+00
  0.00000000E+00  0.00000000E+00  0.00000000E+00
  0.00000000E+00  0.00000000E+00  0.00000000E+00
  0.00000000E+00  0.00000000E+00  0.00000000E+00
  0.00000000E+00  0.00000000E+00  0.00000000E+00
  0.00000000E+00  0.00000000E+00  0.00000000E+00
  0.00000000E+00  0.00000000E+00  0.00000000E+00
  0.00000000E+00  0.00000000E+00  0.00000000E+00
  0.00000000E+00  0.00000000E+00  0.00000000E+00
  0.00000000E+00  0.00000000E+00  0.00000000E+00
  0.00000000E+00  0.00000000E+00  0.00000000E+00
  0.00000000E+00  0.00000000E+00  0.00000000E+00
  0.00000000E+00  0.00000000E+00  0.00000000E+00
  0.00000000E+00  0.00000000E+00  0.00000000E+00
  0.00000000E+00  0.00000000E+00  0.00000000E+00
  0.00000000E+00  0.00000000E+00  0.00000000E+00
  0.00000000E+00  0.00000000E+00  0.00000000E+00
  0.00000000E+00  0.00000000E+00  0.00000000E+00
  0.00000000E+00  0.00000000E+00  0.00000000E+00
  0.00000000E+00  0.00000000E+00  0.00000000E+00
  0.00000000E+00  0.00000000E+00  0.00000000E+00
  0.00000000E+00  0.00000000E+00  0.00000000E+00
  0.00000000E+00  0.00000000E+00  0.00000000E+00
  0.00000000E+00  0.00000000E+00  0.00000000E+00
  0.00000000E+00  0.00000000E+00  0.00000000E+00
  0.00000000E+00  0.00000000E+00  0.00000000E+00
  0.00000000E+00  0.00000000E+00  0.00000000E+00
  0.00000000E+00  0.00000000E+00  0.00000000E+00
  0.00000000E+00  0.00000000E+00  0.00000000E+00
  0.00000000E+00  0.00000000E+00  0.00000000E+00
  0.00000000E+00  0.00000000E+00  0.00000000E+00
  0.00000000E+00  0.00000000E+00  0.00000000E+00
  0.00000000E+00  0.00000000E+00  0.00000000E+00
  0.00000000E+00  0.00000000E+00  0.00000000E+00
  0.00000000E+00  0.00000000E+00  0.00000000E+00
  0.00000000E+00  0.00000000E+00  0.00000000E+00
  0.00000000E+00  0.00000000E+00  0.00000000E+00
  0.00000000E+00  0.00000000E+00  0.00000000E+00
  0.00000000E+00  0.00000000E+00  0.00000000E+00
  0.00000000E+00  0.00000000E+00  0.00000000E+00
  0.00000000E+00  0.00000000E+00  0.00000000E+00
  0.00000000E+00  0.00000000E+00  0.00000000E+00
  0.00000000E+00  0.00000000E+00  0.00000000E+00
  0.00000000E+00  0.00000000E+00  0.00000000E+00
  0.00000000E+00  0.00000000E+00  0.00000000E+00
  0.00000000E+00  0.00000000E+00  0.00000000E+00
  0.00000000E+00  0.00000000E+00  0.00000000E+00
  0.00000000E+00  0.00000000E+00  0.00000000E+00
  0.00000000E+00  0.00000000E+00  0.00000000E+00
  0.00000000E+00  0.00000000E+00  0.00000000E+00
  0.00000000E+00  0.00000000E+00  0.00000000E+00
  0.00000000E+00  0.00000000E+00  0.00000000E+00
  0.00000000E+00  0.00000000E+00  0.00000000E+00
  0.00000000E+00  0.00000000E+00  0.00000000E+00
  0.00000000E+00  0.00000000E+00  0.00000000E+00
  0.00000000E+00  0.00000000E+00  0.00000000E+00
  0.00000000E+00  0.00000000E+00  0.00000000E+00
  0.00000000E+00  0.00000000E+00  0.00000000E+00
  0.00000000E+00  0.00000000E+00  0.00000000E+00
  0.00000000E+00  0.00000000E+00  0.00000000E+00
  0.00000000E+00  0.00000000E+00  0.00000000E+00
  0.00000000E+00  0.00000000E+00  0.00000000E+00
  0.00000000E+00  0.00000000E+00  0.00000000E+00
  0.00000000E+00  0.00000000E+00  0.00000000E+00
  0.00000000E+00  0.00000000E+00  0.00000000E+00
  0.00000000E+00  0.00000000E+00  0.00000000E+00
  0.00000000E+00  0.00000000E+00  0.00000000E+00
  0.00000000E+00  0.00000000E+00  0.00000000E+00
  0.00000000E+00  0.00000000E+00  0.00000000E+00
  0.00000000E+00  0.00000000E+00  0.00000000E+00
  0.00000000E+00  0.00000000E+00  0.00000000E+00
  0.00000000E+00  0.00000000E+00  0.00000000E+00
  0.00000000E+00  0.00000000E+00  0.00000000E+00
  0.00000000E+00  0.00000000E+00  0.00000000E+00
  0.00000000E+00  0.00000000E+00  0.00000000E+00
  0.00000000E+00  0.00000000E+00  0.00000000E+00
  0.00000000E+00  0.00000000E+00  0.00000000E+00
  0.00000000E+00  0.00000000E+00  0.00000000E+00