H44O154Si65W1
1.0
     23.4112946       0.0000000       0.0000000
      0.0000000      18.1212370       0.0000000
      0.0000000       0.0000000      26.8833665
  H     O     Si    W   
  44   154    65    1   
Direct
      0.7618969       0.1036150       0.6515560
      0.9264277       0.2786690       0.3563349
      0.7933397       0.2072789       0.3734565
      0.9745391       0.9436086       0.3253028
      0.6257327       0.9634728       0.3752312
      0.8205384       0.9950067       0.3689926
      0.7499931       0.1411788       0.4580382
      0.9153702       0.2494315       0.5096752
      0.5834929       0.3042635       0.3059272
      0.8914904       0.3345978       0.6166321
      0.5869016       0.3563645       0.6164082
      0.5942434       0.8713425       0.5778896
      0.0334013       0.3372337       0.6527861
      0.9352705       0.4195142       0.4541015
      0.7461384       0.5303120       0.4224882
      0.7969915       0.3811394       0.6339708
      0.5911020       0.5686828       0.3780347
      0.7184338       0.6459328       0.3834606
      0.8411529       0.5424266       0.4195962
      0.0047645       0.6037981       0.3577783
      0.8283587       0.7123567       0.4679423
      0.8756724       0.5996355       0.7222130
      0.5199903       0.9855648       0.4217031
      0.2230946       0.9801548       0.3932050
      0.2163737       0.2378515       0.3192303
      0.1575011       0.3298062       0.2789829
      0.3415469       0.1555857       0.3307728
      0.2227159       0.0457589       0.3227384
      0.5118411       0.8248944       0.5469613
      0.3801162       0.2427838       0.6473311
      0.2437616       0.0929144       0.5983257
      0.3153810       0.4871365       0.4424347
      0.4089562       0.4387349       0.4056906
      0.3984995       0.7931136       0.3887868
      0.2442024       0.6554301       0.2943269
      0.3117414       0.4184757       0.3692576
      0.4054743       0.5842797       0.3388199
      0.1393576       0.4879736       0.3519295
      0.5932693       0.6979871       0.3523980
      0.4690068       0.8614275       0.4438284
      0.1213999       0.3231681       0.6117657
      0.0683314       0.6681797       0.6443196
      0.2392152       0.3883132       0.6829083
      0.2480224       0.8140166       0.6703723
      0.3689417       0.6483551       0.4390000
      0.3468156       0.5040339       0.4203881
      0.8611319       0.5666608       0.6968321
      0.3489969       0.9574756       0.5303344
      0.0335256       0.9321504       0.5286966
      0.6363555       0.0788685       0.4893767
      0.0686461       0.0522654       0.3951107
      0.4518995       0.1295623       0.4205973
      0.8058841       0.2136502       0.4831666
      0.9733776       0.1812994       0.5988185
      0.2747653       0.2991729       0.4485122
      0.5563542       0.7750913       0.4417510
      0.3925984       0.9707678       0.6194103
      0.1775172       0.3499684       0.4052731
      0.8668687       0.6841869       0.6371604
      0.8656960       0.9671769       0.4670385
      0.3010471       0.7609368       0.4579253
      0.4216109       0.2612522       0.3795963
      0.8113294       0.4654981       0.5201569
      0.9841843       0.0726610       0.5210718
      0.5164530       0.4442749       0.6273848
      0.0345364       0.9199478       0.4294053
      0.9630365       0.3031953       0.3512576
      0.0696267       0.3361058       0.3763718
      0.2082957       0.7286443       0.3953601
      0.0389013       0.4191019       0.4991088
      0.2396387       0.2858403       0.5878929
      0.3979712       0.1946975       0.6445462
      0.4604048       0.5547678       0.5941906
      0.9099771       0.7492063       0.5574404
      0.8691273       0.1080433       0.4422783
      0.5725768       0.6673319       0.3761317
      0.1424266       0.1591255       0.3759722
      0.3506262       0.7656336       0.6065842
      0.9109960       0.8450476       0.4831796
      0.0613380       0.5368717       0.4422535
      0.7083390       0.5551666       0.4199577
      0.0754873       0.8168068       0.4829942
      0.7004648       0.8275557       0.4326353
      0.7303092       0.0491082       0.5429569
      0.9185085       0.3006813       0.6321275
      0.7358291       0.8537433       0.6131108
      0.6251220       0.5273940       0.4863787
      0.5565733       0.6297030       0.4672494
      0.4265765       0.2453012       0.5551359
      0.9782901       0.7282436       0.4767956
      0.6543521       0.5945751       0.6333566
      0.3969182       0.7462176       0.5151449
      0.6026901       0.5176655       0.3856710
      0.7195484       0.6315302       0.5570237
      0.1466262       0.3640808       0.6198511
      0.0663149       0.5485442       0.5419336
      0.8189543       0.8848531       0.5365957
      0.8282155       0.3553851       0.4519033
      0.5280327       0.2976666       0.5318758
      0.7370253       0.4995500       0.5952052
      0.5574339       0.1724311       0.3949085
      0.8059641       0.2564126       0.3832929
      0.2374462       0.9532508       0.5079196
      0.6931897       0.7770451       0.5414146
      0.9239809       0.9501184       0.5527374
      0.5257372       0.3177811       0.3985559
      0.4688630       0.9891642       0.5460321
      0.8377183       0.0950389       0.5397761
      0.5379033       0.1164175       0.4862371
      0.3501934       0.1866087       0.4396364
      0.0117603       0.9624139       0.3352438
      0.4585713       0.6014375       0.6823609
      0.6549652       0.9253975       0.3792283
      0.0762933       0.6860263       0.4358810
      0.4531425       0.4034090       0.5516232
      0.7192194       0.7004209       0.3795830
      0.4494824       0.7011703       0.5988279
      0.7525511       0.7093246       0.4762955
      0.7785388       0.1212810       0.6207611
      0.9932746       0.3080135       0.4484030
      0.5327968       0.5101435       0.5317265
      0.8167776       0.4990617       0.4234422
      0.2356944       0.1448019       0.6051320
      0.2035333       0.8307013       0.4705336
      0.2400719       0.5585589       0.5228499
      0.0610286       0.6254501       0.6236247
      0.0460741       0.6023467       0.3541786
      0.8013490       0.9792001       0.6056994
      0.5379909       0.0276975       0.4045028
      0.6065986       0.3123140       0.6049527
      0.8615461       0.0040808       0.3692063
      0.0949113       0.1490228       0.4670823
      0.1716528       0.2042000       0.5305668
      0.6409887       0.7044387       0.4548156
      0.4367878       0.4097685       0.3864133
      0.5746958       0.0578956       0.5710444
      0.1514377       0.5934080       0.3889584
      0.2677398       0.6023375       0.3923063
      0.4402585       0.3221982       0.4703244
      0.2380097       0.1585111       0.4299012
      0.0729823       0.1502799       0.5625579
      0.8453521       0.5439180       0.6000233
      0.6211794       0.2799399       0.4109055
      0.6026670       0.8915267       0.4672235
      0.0313854       0.1952898       0.3889919
      0.6081353       0.1949847       0.5475096
      0.1327997       0.9383546       0.4794871
      0.0802676       0.2804033       0.5115797
      0.3729258       0.1032259       0.5691605
      0.0666462       0.6971242       0.5357469
      0.6664884       0.4153849       0.4300116
      0.7995052       0.7298389       0.5641580
      0.7038386       0.9572084       0.4701846
      0.5969557       0.6344501       0.5542670
      0.7228403       0.2936847       0.4516681
      0.9775975       0.3141065       0.5473160
      0.1582608       0.6297041       0.5703961
      0.6333338       0.3267831       0.5078007
      0.8196235       0.3962294       0.6054919
      0.9585782       0.0272430       0.4169530
      0.2822301       0.1951675       0.5186521
      0.2492575       0.4430329       0.4610557
      0.2723623       0.8490188       0.5680908
      0.2036681       0.6855732       0.4868887
      0.1471235       0.4760699       0.4925449
      0.2246706       0.4223696       0.5567751
      0.9114170       0.4527446       0.4737188
      0.8697882       0.7045601       0.4641535
      0.7381202       0.0928346       0.4452296
      0.2221834       0.9297812       0.4079468
      0.2514194       0.4019482       0.6497341
      0.6311877       0.8839228       0.5933019
      0.4102233       0.7890624       0.4234374
      0.9177714       0.1960383       0.5082451
      0.1325471       0.4435361       0.3322727
      0.1551477       0.3035233       0.3105604
      0.3730051       0.1309070       0.3479534
      0.0344924       0.2919894       0.6334787
      0.5726893       0.2568682       0.3200997
      0.2456035       0.7700513       0.6499088
      0.2073743       0.6484050       0.3103691
      0.2753744       0.3921913       0.3673758
      0.3653508       0.5975866       0.3422208
      0.2263809       0.0561808       0.3581189
      0.2412033       0.1960782       0.3293430
      0.5012729       0.8923016       0.4548417
      0.5506826       0.8275631       0.5343446
      0.5467565       0.6566636       0.6361062
      0.4789226       0.1206299       0.5963859
      0.2627072       0.6938585       0.5685711
      0.4437335       0.8454970       0.5814861
      0.7659101       0.6172824       0.6493014
      0.8453296       0.8319627       0.6228703
      0.6428638       0.7405303       0.6217479
      0.0081768       0.0334047       0.6029909
      0.2850161       0.0008805       0.5938358
      0.5042506       0.9701446       0.6283059
      0.5026698       0.4675679       0.7385851
      0.0832253       0.6064203       0.4064131
      0.4090235       0.7650109       0.5743731
      0.8417638       0.4414531       0.4678390
      0.0170895       0.9904820       0.3936114
      0.0147002       0.2841903       0.3910814
      0.0095353       0.1149615       0.5724969
      0.6111056       0.6598330       0.6116340
      0.2139718       0.4757113       0.5097936
      0.9150621       0.7555609       0.4962545
      0.5205785       0.1104556       0.4259866
      0.4191071       0.1680824       0.5893221
      0.0834525       0.1391721       0.4069809
      0.7018979       0.0448463       0.4873230
      0.6650594       0.8980375       0.4374764
      0.6500987       0.5040271       0.4301509
      0.1984606       0.9124822       0.4639907
      0.2141930       0.3664234       0.6036794
      0.6747357       0.8147061       0.5946969
      0.2166697       0.6413926       0.5384798
      0.3687891       0.7351277       0.4592093
      0.7981090       0.8890550       0.5957088
      0.8798890       0.9123548       0.5119578
      0.5769987       0.5755147       0.5122515
      0.5899054       0.1152096       0.5252480
      0.8581223       0.1521132       0.4951759
      0.8358135       0.6037577       0.6459481
      0.1337385       0.3603189       0.3568723
      0.7906553       0.2799392       0.4418727
      0.3991761       0.1774948       0.3960032
      0.8562376       0.7502298       0.5965189
      0.2830513       0.9340674       0.5494398
      0.0230747       0.3304475       0.5022455
      0.5745594       0.6954901       0.4355644
      0.2302410       0.7526005       0.4519695
      0.5942576       0.2834587       0.5483605
      0.9751214       0.2720693       0.6027091
      0.8889064       0.0254090       0.4242002
      0.1048186       0.1955146       0.5177058
      0.0481457       0.7330371       0.4826302
      0.2320077       0.2057979       0.5609886
      0.5614078       0.2577853       0.3812261
      0.4799356       0.6319165       0.6264393
      0.2813315       0.7701183       0.5976075
      0.2085008       0.6433998       0.3717945
      0.7405402       0.7111756       0.5358855
      0.9867848       0.9906160       0.5503277
      0.7031046       0.7368182       0.4342604
      0.7879822       0.0597583       0.5768035
      0.4563139       0.3284516       0.4092879
      0.4504235       0.9346077       0.5942383
      0.5091984       0.0396862       0.5860219
      0.2442472       0.3704063       0.4209471
      0.6585253       0.3300021       0.4503479
      0.4607714       0.3162454       0.5284790
      0.3372994       0.5899425       0.3990830
      0.8034415       0.4764851       0.5798330
      0.0692098       0.8988592       0.4805055
      0.2119076       0.1444543       0.3735966
      0.0782329       0.4939850       0.4946876
      0.5575702       0.8523401       0.4747303
      0.7186656       0.5849410       0.6096143
      0.2866421       0.2101017       0.4591108
      0.0880442       0.6255689       0.5676020
      0.3539131       0.0175942       0.5784607
      0.4896614       0.4751688       0.5731017
      0.4846861       0.5009256       0.6813129
