C2H48O154Si65W1
1.0
     23.4112946       0.0000000       0.0000000
      0.0000000      18.1212370       0.0000000
      0.0000000       0.0000000      26.8833665
  C     H     O     Si    W   
  2     48   154    65    1   
Direct
      0.5512879       0.5403611       0.7981972
      0.5460862       0.5582878       0.7496128
      0.7603591       0.1038226       0.6509080
      0.9264277       0.2786690       0.3563349
      0.7933397       0.2072789       0.3734565
      0.9745391       0.9436086       0.3253028
      0.6257327       0.9634728       0.3752312
      0.8205384       0.9950067       0.3689926
      0.7499931       0.1411788       0.4580382
      0.9154352       0.2494633       0.5091148
      0.5834929       0.3042635       0.3059272
      0.8913754       0.3347275       0.6161348
      0.5892885       0.3589369       0.6153358
      0.5934695       0.8707006       0.5779495
      0.0337143       0.3377270       0.6521893
      0.9352705       0.4195142       0.4541015
      0.7461384       0.5303120       0.4224882
      0.7979964       0.3820025       0.6347451
      0.5911020       0.5686828       0.3780347
      0.7184338       0.6459328       0.3834606
      0.8411529       0.5424266       0.4195962
      0.0047645       0.6037981       0.3577783
      0.8283587       0.7123567       0.4679423
      0.8759220       0.5987038       0.7220477
      0.5199903       0.9855648       0.4217031
      0.2230946       0.9801548       0.3932050
      0.2163737       0.2378515       0.3192303
      0.1575011       0.3298062       0.2789829
      0.3415469       0.1555857       0.3307728
      0.2227159       0.0457589       0.3227384
      0.5110173       0.8262869       0.5466595
      0.3720424       0.2360696       0.6472673
      0.2435735       0.0931486       0.5984764
      0.3153810       0.4871365       0.4424347
      0.4089562       0.4387349       0.4056906
      0.3984995       0.7931136       0.3887868
      0.2442024       0.6554301       0.2943269
      0.3117414       0.4184757       0.3692576
      0.4054743       0.5842797       0.3388199
      0.1393576       0.4879736       0.3519295
      0.5932693       0.6979871       0.3523980
      0.4690068       0.8614275       0.4438284
      0.1215798       0.3231026       0.6116724
      0.0720417       0.6655298       0.6455230
      0.2396662       0.3872381       0.6828577
      0.2463733       0.8159857       0.6689435
      0.5346613       0.4884326       0.8129429
      0.5728881       0.5769515       0.8246420
      0.5679468       0.4666085       0.6968693
      0.5660154       0.6094683       0.7361070
      0.3689417       0.6483551       0.4390000
      0.3468156       0.5040339       0.4203881
      0.8607585       0.5659840       0.6967850
      0.3490056       0.9589597       0.5300269
      0.0334432       0.9325329       0.5285370
      0.6363555       0.0788685       0.4893767
      0.0686461       0.0522654       0.3951107
      0.4518995       0.1295623       0.4205973
      0.8058841       0.2136502       0.4831666
      0.9731117       0.1815403       0.5987821
      0.2747653       0.2991729       0.4485122
      0.5563542       0.7750913       0.4417510
      0.3918826       0.9732538       0.6192049
      0.1775172       0.3499684       0.4052731
      0.8666529       0.6840342       0.6373052
      0.8656960       0.9671769       0.4670385
      0.3010471       0.7609368       0.4579253
      0.4216109       0.2612522       0.3795963
      0.8112888       0.4653760       0.5201990
      0.9835402       0.0727500       0.5212447
      0.5109241       0.4617973       0.6279797
      0.0345364       0.9199478       0.4294053
      0.9630365       0.3031953       0.3512576
      0.0696267       0.3361058       0.3763718
      0.2082957       0.7286443       0.3953601
      0.0389013       0.4191019       0.4991088
      0.2397566       0.2858977       0.5878560
      0.3979633       0.1944654       0.6448787
      0.4545551       0.5637785       0.5802453
      0.9097986       0.7491968       0.5574847
      0.8691273       0.1080433       0.4422783
      0.5725768       0.6673319       0.3761317
      0.1424266       0.1591255       0.3759722
      0.3507116       0.7652692       0.6066961
      0.9109960       0.8450476       0.4831796
      0.0613380       0.5368717       0.4422535
      0.7083390       0.5551666       0.4199577
      0.0754873       0.8168068       0.4829942
      0.7004648       0.8275557       0.4326353
      0.7301538       0.0489806       0.5430145
      0.9189461       0.3020266       0.6320956
      0.7350167       0.8530534       0.6129565
      0.6251220       0.5273940       0.4863787
      0.5565733       0.6297030       0.4672494
      0.4251477       0.2474295       0.5553338
      0.9782901       0.7282436       0.4767956
      0.6542688       0.5940259       0.6333705
      0.3971811       0.7463724       0.5153040
      0.6026901       0.5176655       0.3856710
      0.7198075       0.6309653       0.5571165
      0.1467362       0.3639721       0.6199420
      0.0664305       0.5485663       0.5419576
      0.8188958       0.8846316       0.5366608
      0.8282155       0.3553851       0.4519033
      0.5273333       0.2986970       0.5326489
      0.7371091       0.4989522       0.5956036
      0.5574339       0.1724311       0.3949085
      0.8059641       0.2564126       0.3832929
      0.2374462       0.9532508       0.5079196
      0.6929466       0.7761385       0.5415320
      0.9238433       0.9497533       0.5529766
      0.5257372       0.3177811       0.3985559
      0.4686485       0.9905476       0.5459503
      0.8377294       0.0947864       0.5397812
      0.5379033       0.1164175       0.4862371
      0.3501934       0.1866087       0.4396364
      0.0117603       0.9624139       0.3352438
      0.4576116       0.5867260       0.6743667
      0.6549652       0.9253975       0.3792283
      0.0762933       0.6860263       0.4358810
      0.4523186       0.4050010       0.5524084
      0.7192194       0.7004209       0.3795830
      0.4511152       0.7048501       0.6008844
      0.7525511       0.7093246       0.4762955
      0.7785831       0.1211071       0.6207090
      0.9932746       0.3080135       0.4484030
      0.5339810       0.5078145       0.5314833
      0.8167776       0.4990617       0.4234422
      0.2357850       0.1451280       0.6053309
      0.2035333       0.8307013       0.4705336
      0.2399819       0.5587104       0.5228406
      0.0611799       0.6254675       0.6236677
      0.0460741       0.6023467       0.3541786
      0.8007500       0.9787273       0.6058426
      0.5379909       0.0276975       0.4045028
      0.6064548       0.3125785       0.6050713
      0.8615461       0.0040808       0.3692063
      0.0949113       0.1490228       0.4670823
      0.1713953       0.2041168       0.5309469
      0.6409887       0.7044387       0.4548156
      0.4367878       0.4097685       0.3864133
      0.5743147       0.0589011       0.5711943
      0.1514377       0.5934080       0.3889584
      0.2677398       0.6023375       0.3923063
      0.4402585       0.3221982       0.4703244
      0.2380097       0.1585111       0.4299012
      0.0727583       0.1502395       0.5625721
      0.8452258       0.5439098       0.5999910
      0.6211794       0.2799399       0.4109055
      0.6026670       0.8915267       0.4672235
      0.0313854       0.1952898       0.3889919
      0.6077735       0.1957117       0.5471534
      0.1327997       0.9383546       0.4794871
      0.0802518       0.2803916       0.5115896
      0.3725142       0.1050741       0.5680840
      0.0666635       0.6970216       0.5357171
      0.6664884       0.4153849       0.4300116
      0.7993968       0.7296306       0.5641499
      0.7038386       0.9572084       0.4701846
      0.5977542       0.6339914       0.5531213
      0.7228403       0.2936847       0.4516681
      0.9775481       0.3141720       0.5472371
      0.1584395       0.6300007       0.5706030
      0.6333338       0.3267831       0.5078007
      0.8199041       0.3960800       0.6056049
      0.9585782       0.0272430       0.4169530
      0.2820237       0.1950735       0.5186505
      0.2492575       0.4430329       0.4610557
      0.2733966       0.8496525       0.5678573
      0.2036681       0.6855732       0.4868887
      0.1471235       0.4760699       0.4925449
      0.2245136       0.4226706       0.5568661
      0.9114170       0.4527446       0.4737188
      0.8697882       0.7045601       0.4641535
      0.7381202       0.0928346       0.4452296
      0.2221834       0.9297812       0.4079468
      0.2516673       0.4015715       0.6497607
      0.6304494       0.8830987       0.5934420
      0.4102233       0.7890624       0.4234374
      0.9177714       0.1960383       0.5082451
      0.1325471       0.4435361       0.3322727
      0.1551477       0.3035233       0.3105604
      0.3730051       0.1309070       0.3479534
      0.0345655       0.2919581       0.6334402
      0.5726893       0.2568682       0.3200997
      0.2453847       0.7709694       0.6494506
      0.2073743       0.6484050       0.3103691
      0.2753744       0.3921913       0.3673758
      0.3653508       0.5975866       0.3422208
      0.2263809       0.0561808       0.3581189
      0.2412033       0.1960782       0.3293430
      0.5012729       0.8923016       0.4548417
      0.5500301       0.8276398       0.5343225
      0.5452982       0.6455764       0.6346098
      0.4784867       0.1225024       0.5959915
      0.2627873       0.6942572       0.5684214
      0.4425830       0.8474240       0.5814741
      0.7656513       0.6168989       0.6494815
      0.8447938       0.8316896       0.6230227
      0.6400310       0.7394246       0.6210058
      0.0081571       0.0334214       0.6030060
      0.2846215       0.0019944       0.5933382
      0.5032459       0.9721542       0.6285488
      0.4641578       0.4354781       0.7319789
      0.0832253       0.6064203       0.4064131
      0.4093451       0.7656262       0.5746515
      0.8417638       0.4414531       0.4678390
      0.0170895       0.9904820       0.3936114
      0.0147002       0.2841903       0.3910814
      0.0092267       0.1150391       0.5725169
      0.6098032       0.6573847       0.6107583
      0.2139763       0.4758446       0.5097426
      0.9150621       0.7555609       0.4962545
      0.5205785       0.1104556       0.4259866
      0.4185569       0.1697183       0.5890085
      0.0834525       0.1391721       0.4069809
      0.7018979       0.0448463       0.4873230
      0.6650594       0.8980375       0.4374764
      0.6500987       0.5040271       0.4301509
      0.1984606       0.9124822       0.4639907
      0.2142668       0.3664646       0.6036093
      0.6736999       0.8135458       0.5946305
      0.2167772       0.6416029       0.5384932
      0.3687891       0.7351277       0.4592093
      0.7974687       0.8885297       0.5956816
      0.8797989       0.9122819       0.5119834
      0.5763125       0.5744209       0.5118979
      0.5899184       0.1156728       0.5251590
      0.8581223       0.1521132       0.4951759
      0.8355913       0.6035783       0.6459493
      0.1337385       0.3603189       0.3568723
      0.7906553       0.2799392       0.4418727
      0.3991761       0.1774948       0.3960032
      0.8560442       0.7500747       0.5965558
      0.2833701       0.9347685       0.5492356
      0.0230747       0.3304475       0.5022455
      0.5745594       0.6954901       0.4355644
      0.2302410       0.7526005       0.4519695
      0.5937016       0.2841864       0.5482964
      0.9751526       0.2723230       0.6026341
      0.8889064       0.0254090       0.4242002
      0.1046559       0.1954652       0.5177429
      0.0481457       0.7330371       0.4826302
      0.2319184       0.2058353       0.5609955
      0.5614078       0.2577853       0.3812261
      0.4770368       0.6268217       0.6211944
      0.2816282       0.7705399       0.5973561
      0.2085008       0.6433998       0.3717945
      0.7404797       0.7105990       0.5358522
      0.9865526       0.9906005       0.5503646
      0.7031046       0.7368182       0.4342604
      0.7879011       0.0594431       0.5767764
      0.4563139       0.3284516       0.4092879
      0.4496370       0.9363590       0.5942285
      0.5086412       0.0413326       0.5859863
      0.2442472       0.3704063       0.4209471
      0.6585253       0.3300021       0.4503479
      0.4601144       0.3183798       0.5289314
      0.3372994       0.5899425       0.3990830
      0.8035006       0.4762311       0.5798761
      0.0692098       0.8988592       0.4805055
      0.2119076       0.1444543       0.3735966
      0.0782329       0.4939850       0.4946876
      0.5575702       0.8523401       0.4747303
      0.7185692       0.5844426       0.6096423
      0.2866421       0.2101017       0.4591108
      0.0882437       0.6255786       0.5676099
      0.3534848       0.0195833       0.5778739
      0.4859479       0.4811011       0.5721200
      0.4993899       0.4991639       0.6962481
