 C  H  O Si  W                          
   1.0000000000000000     
    23.4112945954000011    0.0000000000000000    0.0000000000000000
     0.0000000000000000   18.1212369513999967    0.0000000000000000
     0.0000000000000000    0.0000000000000000   26.8833665072999999
   C    H    O    Si   W 
     4    52   154    65     1
Selective dynamics
Direct
  0.5917035948240830  0.4367346404882770  0.7045254964509073   T   T   T
  0.4928766254770321  0.6293293023030313  0.7902452453921398   T   T   T
  0.5468766726170575  0.6101372745699017  0.7631653235112620   T   T   T
  0.5822770785821048  0.5539426552042933  0.7752334916647121   T   T   T
  0.7608407188857275  0.0772080510854146  0.6507514235089141   T   T   T
  0.9264276758305172  0.2510770272527409  0.3563349293400009   F   F   F
  0.7933396966457948  0.1796869616534877  0.3734565163880745   F   F   F
  0.9745391126846457  0.9160166649671027  0.3253027906056829   F   F   F
  0.6257326647317640  0.9358809144035689  0.3752311999972449   F   F   F
  0.8205383985802470  0.9674147280076042  0.3689926296547128   F   F   F
  0.7499930738025071  0.1135868202606858  0.4580381926778543   F   F   F
  0.9155126785690858  0.2218623225875732  0.5094631708287619   T   T   T
  0.5834928632346532  0.2766716106437030  0.3059271726651787   F   F   F
  0.8922767915328782  0.3076258470164588  0.6166510981428431   T   T   T
  0.5876230014719371  0.3300012321840228  0.6166295022820169   T   T   T
  0.5943494874772093  0.8439634448584658  0.5774692944729503   T   T   T
  0.0335663157640662  0.3099103484086604  0.6525528891694131   T   T   T
  0.9352705076293475  0.3919222901641533  0.4541014552468710   F   F   F
  0.7461383787264921  0.5027200568444741  0.4224881911837883   F   F   F
  0.7993643236988829  0.3562047782256961  0.6355569433927862   T   T   T
  0.5911020173621253  0.5410908911349210  0.3780347436188976   F   F   F
  0.7184337867332147  0.6183408502273551  0.3834605945055571   F   F   F
  0.8411529141822527  0.5148346604826699  0.4195961671555111   F   F   F
  0.0047645486004839  0.5762062136433457  0.3577783004107076   F   F   F
  0.8283586992797254  0.6847647378255459  0.4679422553080954   F   F   F
  0.8798348114418005  0.5719736903249816  0.7208105773796702   T   T   T
  0.5199903139142066  0.9579728259752613  0.4217030704774842   F   F   F
  0.2230945721141921  0.9525628996074929  0.3932050219465495   F   F   F
  0.2163736907012108  0.2102595224166350  0.3192303272980936   F   F   F
  0.1575010503146004  0.3022142944208284  0.2789829167401123   F   F   F
  0.3415468765222016  0.1279937699628633  0.3307727584112428   F   F   F
  0.2227158616176865  0.0181669904368533  0.3227384335196248   F   F   F
  0.5116132189043968  0.7983558045901339  0.5470395807486956   T   T   T
  0.3753215113202457  0.2119292770041876  0.6467559312604539   T   T   T
  0.2444899916799368  0.0655479160095539  0.5984873130546163   T   T   T
  0.3153809712620799  0.4595445289873936  0.4424346656312608   F   F   F
  0.4089561836824345  0.4111429231007548  0.4056905975982730   F   F   F
  0.3984995031771135  0.7655216720637981  0.3887867966224334   F   F   F
  0.2442023570718419  0.6278381431914895  0.2943268807443218   F   F   F
  0.3117413815096768  0.3908837779505347  0.3692576443915385   F   F   F
  0.4054742948373828  0.5566877178779279  0.3388198885480591   F   F   F
  0.1393576205410270  0.4603817109932749  0.3519294596467617   F   F   F
  0.5932693450847850  0.6703951928381713  0.3523979868156601   F   F   F
  0.4690068300988983  0.8338355336517296  0.4438283837725479   F   F   F
  0.1223642245250973  0.2972789452472160  0.6130127282863177   T   T   T
  0.0739526989124615  0.6359928114072332  0.6463559946949247   T   T   T
  0.2436742481802022  0.3601871419301462  0.6822027568337837   T   T   T
  0.2461689400773904  0.7879253626180717  0.6695496693038917   T   T   T
  0.6042610031484715  0.3943761867748088  0.7315571455361108   T   T   T
  0.6276903138795944  0.4637573526438251  0.6857763241981842   T   T   T
  0.4987141513415645  0.6823222477150136  0.8098783574210986   T   T   T
  0.4815930014531363  0.5869375713380023  0.8178274247048719   T   T   T
  0.4571497615891837  0.6365407834339830  0.7640706265202492   T   T   T
  0.5587778725959160  0.6460050661852786  0.7320902738406214   T   T   T
  0.6230068726480884  0.5464152149216136  0.7563802492647235   T   T   T
  0.5729719391886168  0.5166644643957717  0.8061540609801063   T   T   T
  0.3689417337474836  0.6207631618343257  0.4390000177989322   F   F   F
  0.3468156499340012  0.4764419323611904  0.4203881275781143   F   F   F
  0.8625687657623876  0.5392340841341577  0.6966037003058110   T   T   T
  0.3487926801563322  0.9299120023620533  0.5305876373381617   T   T   T
  0.0332015172119890  0.9044621196083722  0.5285344787467490   T   T   T
  0.6363554822520214  0.0512766099738116  0.4893766723794641   F   F   F
  0.0686461464337711  0.0246734858883642  0.3951107345583225   F   F   F
  0.4518995423849290  0.1019703892430641  0.4205972814427668   F   F   F
  0.8058841492391053  0.1860582441056593  0.4831666074103040   F   F   F
  0.9737447795871912  0.1539174736608856  0.5987258329809496   T   T   T
  0.2747652928370670  0.2715809354239340  0.4485122250900346   F   F   F
  0.5563541661493261  0.7474993555919198  0.4417510122690658   F   F   F
  0.3919422145210989  0.9440939657082820  0.6195435039992103   T   T   T
  0.1775172398119551  0.3223765137428245  0.4052731245300478   F   F   F
  0.8674660141320241  0.6577139160801351  0.6374946487311218   T   T   T
  0.8656960101805780  0.9395849964913481  0.4670384592975196   F   F   F
  0.3010471365425786  0.7333448992880918  0.4579252567998537   F   F   F
  0.4216109455749333  0.2336602814286834  0.3795963030273342   F   F   F
  0.8114704650404926  0.4375377877618818  0.5203703194566128   T   T   T
  0.9837210949324129  0.0447854262850414  0.5210860724482022   T   T   T
  0.5100327341995673  0.4278795060631866  0.6269914760735219   T   T   T
  0.0345364060712328  0.8923558260657671  0.4294052572495062   F   F   F
  0.9630365418976012  0.2756033723577644  0.3512576249606170   F   F   F
  0.0696266904018330  0.3085138299440473  0.3763717815531962   F   F   F
  0.2082956574839798  0.7010523586094664  0.3953601014000157   F   F   F
  0.0389012628664673  0.3915099799934936  0.4991087535393461   F   F   F
  0.2392978332112816  0.2583380117694326  0.5878223453709159   T   T   T
  0.3974343562813521  0.1668351670937348  0.6443831695148972   T   T   T
  0.4541572699175598  0.5356137877392333  0.5829939818688806   T   T   T
  0.9107641059276009  0.7218179830113290  0.5575794066866568   T   T   T
  0.8691272712828919  0.0804514067726174  0.4422783307318099   F   F   F
  0.5725767945286506  0.6397399172800036  0.3761317316733468   F   F   F
  0.1424265590487721  0.1315335632270873  0.3759722435750490   F   F   F
  0.3502040525439923  0.7390392059342065  0.6066735192830476   T   T   T
  0.9109960497481637  0.8174556358392309  0.4831796236075121   F   F   F
  0.0613380104439898  0.5092797702469767  0.4422534820284341   F   F   F
  0.7083390276613883  0.5275746162604733  0.4199576800001736   F   F   F
  0.0754872572295611  0.7892148693080898  0.4829941554854784   F   F   F
  0.7004647711503367  0.7999637794251200  0.4326352913293690   F   F   F
  0.7304166234572362  0.0215367360885112  0.5430044104210979   T   T   T
  0.9193448563656598  0.2738899758383637  0.6322870209358362   T   T   T
  0.7359900350819191  0.8260697216577649  0.6132831592015827   T   T   T
  0.6251219543397468  0.4998020664753966  0.4863787091564404   F   F   F
  0.5565732986914895  0.6021111047972383  0.4672494240254110   F   F   F
  0.4258215901363787  0.2193127226407401  0.5553416540086079   T   T   T
  0.9782900937866188  0.7006516980188309  0.4767956400891720   F   F   F
  0.6556935209965098  0.5686371643946160  0.6334273178809251   T   T   T
  0.3972964743366042  0.7180295620070861  0.5157046386466128   T   T   T
  0.6026900684925138  0.4900735161853262  0.3856709925442061   F   F   F
  0.7212778783369218  0.6045264620607904  0.5575452311163721   T   T   T
  0.1480291846981780  0.3375305945454858  0.6215542343592531   T   T   T
  0.0662410978488303  0.5206209644716818  0.5421655490330057   T   T   T
  0.8187533096523060  0.8575833778201372  0.5365013900692639   T   T   T
  0.8282155306144290  0.3277932071376100  0.4519033357708793   F   F   F
  0.5273371872208519  0.2719022102914204  0.5328876559915913   T   T   T
  0.7378396769276659  0.4722391927834917  0.5957564454189608   T   T   T
  0.5574339360525684  0.1448391695908597  0.3949085375269945   F   F   F
  0.8059640829434258  0.2288206348838528  0.3832928600033014   F   F   F
  0.2374462167159379  0.9256588148859279  0.5079195554207132   F   F   F
  0.6938829673277281  0.7499406153380270  0.5412173765953530   T   T   T
  0.9236873707620702  0.9223479671934417  0.5528977816815652   T   T   T
  0.5257372223071499  0.2901891839946273  0.3985559351687087   F   F   F
  0.4684766314533320  0.9618789849726219  0.5463062017211249   T   T   T
  0.8381100544933472  0.0672375967218298  0.5398224546101767   T   T   T
  0.5379032529954273  0.0888255537255489  0.4862370923690094   F   F   F
  0.3501934424681892  0.1590167968460534  0.4396363938456389   F   F   F
  0.0117603227697671  0.9348219643136062  0.3352437574830063   F   F   F
  0.4699232411240937  0.5582114393744620  0.6774379426057897   T   T   T
  0.6549652215052149  0.8978055687221200  0.3792282539811964   F   F   F
  0.0762933429000086  0.6584343218180919  0.4358810225764742   F   F   F
  0.4514292359192549  0.3782518974778610  0.5509505530979555   T   T   T
  0.7192194365794862  0.6728289157577692  0.3795829994963285   F   F   F
  0.4493187985124486  0.6756429978246742  0.6033845042723381   T   T   T
  0.7525510590585540  0.6817326398154933  0.4762954835743187   F   F   F
  0.7794059689219810  0.0940487227701280  0.6205843128951395   T   T   T
  0.9932746154998640  0.2804215378358847  0.4484029789284989   F   F   F
  0.5338783180569002  0.4828207082959781  0.5331889774691804   T   T   T
  0.8167775851685377  0.4714697988836747  0.4234422052650615   F   F   F
  0.2367102266255556  0.1175539995812171  0.6052771332310848   T   T   T
  0.2035333056693176  0.8031093804926854  0.4705336293601903   F   F   F
  0.2397575824472664  0.5313574849876473  0.5229074833232860   T   T   T
  0.0610593453347829  0.5976549422235885  0.6238950633202062   T   T   T
  0.0460740721579711  0.5747547565893569  0.3541786312221902   F   F   F
  0.8013567861659544  0.9517577737573569  0.6058405993852398   T   T   T
  0.5379909096643800  0.0001055561938301  0.4045027517534763   F   F   F
  0.6069698464775677  0.2856893783660132  0.6050807025248744   T   T   T
  0.8615461074870723  0.9764889139056763  0.3692063291070653   F   F   F
  0.0949113079349573  0.1214308998166942  0.4670823258906296   F   F   F
  0.1714922969128395  0.1762971144692042  0.5309711031138731   T   T   T
  0.6409886548370807  0.6768467846480206  0.4548155821771758   F   F   F
  0.4367877833594562  0.3821765453138681  0.3864132536704119   F   F   F
  0.5742070534602880  0.0305712634022585  0.5710111594764431   T   T   T
  0.1514377461550822  0.5658160879137952  0.3889583608347777   F   F   F
  0.2677397900298786  0.5747455958350258  0.3923062966030031   F   F   F
  0.4402584599838875  0.2946062467268575  0.4703244327181508   F   F   F
  0.2380096658428670  0.1309191937704171  0.4299011866524154   F   F   F
  0.0730322752912476  0.1218905099102235  0.5624241626663837   T   T   T
  0.8459960440322524  0.5176875824679470  0.5996073838855664   T   T   T
  0.6211794283797261  0.2523479410133049  0.4109054511829981   F   F   F
  0.6026669933268991  0.8639347302442602  0.4672234595428861   F   F   F
  0.0313853911711632  0.1676978935350917  0.3889918752683101   F   F   F
  0.6069902169339056  0.1680826832396107  0.5475009000221321   T   T   T
  0.1327997262830110  0.9107627089896297  0.4794870772378772   F   F   F
  0.0801053325564837  0.2526807472132210  0.5120000320958441   T   T   T
  0.3727027234960020  0.0763979754587239  0.5682863791558388   T   T   T
  0.0661021584864917  0.6689169300677172  0.5357229811530351   T   T   T
  0.6664883802395920  0.3877929420131068  0.4300115561107631   F   F   F
  0.8003105517540626  0.7028996137095942  0.5641918334265975   T   T   T
  0.7038385585664102  0.9296164977467782  0.4701845621740759   F   F   F
  0.6015894244110125  0.6074996336381604  0.5516972457848781   T   T   T
  0.7228402998194312  0.2660927185286610  0.4516681052539582   F   F   F
  0.9773669277342614  0.2864146663122704  0.5471004247570714   T   T   T
  0.1581097764198252  0.6025319525678723  0.5706956115499097   T   T   T
  0.6333338447636834  0.2991911437139052  0.5078007023299378   F   F   F
  0.8213892643331837  0.3703139481556958  0.6065116255928376   T   T   T
  0.9585781980424741  0.9996511088168560  0.4169530046787955   F   F   F
  0.2821068308447454  0.1673816798374401  0.5185863867199708   T   T   T
  0.2492575497062219  0.4154409535944197  0.4610556955705079   F   F   F
  0.2714767134532772  0.8221391939256736  0.5686385006147374   T   T   T
  0.2036681492717136  0.6579812338957822  0.4868887178860462   F   F   F
  0.1471234534025641  0.4484779411193642  0.4925449251270066   F   F   F
  0.2250075989847877  0.3953865352262230  0.5567600832849984   T   T   T
  0.9114169782388899  0.4251526626334865  0.4737188145108959   F   F   F
  0.8697881760712605  0.6769681749706535  0.4641535209108483   F   F   F
  0.7381202077648155  0.0652426829841062  0.4452296472671975   F   F   F
  0.2221834364137223  0.9021892542515957  0.4079468165165281   F   F   F
  0.2541699299949799  0.3746056242335561  0.6487212207693348   T   T   T
  0.6312925927166638  0.8566252751289133  0.5929388323077556   T   T   T
  0.4102232652989244  0.7614704564543544  0.4234373851432949   F   F   F
  0.9177713526838360  0.1684463581148776  0.5082451459005242   F   F   F
  0.1325470583719763  0.4159441782818121  0.3322726622007863   F   F   F
  0.1551476808383612  0.2759313196615807  0.3105604161752922   F   F   F
  0.3730051452223293  0.1033151077115306  0.3479534200993726   F   F   F
  0.0350549075331250  0.2649262712583474  0.6329839156090872   T   T   T
  0.5726892607312024  0.2292762558341295  0.3200996781806822   F   F   F
  0.2452541927147065  0.7426929577012505  0.6502444527341155   T   T   T
  0.2073742988503469  0.6208131141528312  0.3103690611938177   F   F   F
  0.2753744117323080  0.3645993634992806  0.3673758273212613   F   F   F
  0.3653508124399352  0.5699946966314613  0.3422207943191111   F   F   F
  0.2263808501748272  0.0285888884952712  0.3581188824802055   F   F   F
  0.2412033349838580  0.1684862920775458  0.3293429668079639   F   F   F
  0.5012729261245497  0.8647096863268757  0.4548416832162587   F   F   F
  0.5504795662460797  0.8000325695563446  0.5343474194421598   T   T   T
  0.5473461312823898  0.6235750558215498  0.6315153368146404   T   T   T
  0.4783436434614899  0.0939658553476709  0.5961035147884280   T   T   T
  0.2622229088930755  0.6670309234518446  0.5687370261704493   T   T   T
  0.4434203511259015  0.8183255559015525  0.5820538571100524   T   T   T
  0.7669090130754572  0.5897852799725625  0.6500467228590213   T   T   T
  0.8457144108609901  0.8052129523834173  0.6227290565873329   T   T   T
  0.6421648930190661  0.7135672896302884  0.6208852162532510   T   T   T
  0.0079069210297444  0.0056327322863909  0.6030090249210063   T   T   T
  0.2846238343475066  0.9741820122668275  0.5936985505720925   T   T   T
  0.5035350373672416  0.9438011486650790  0.6286971881390212   T   T   T
  0.4775664251201374  0.4075317087782189  0.7343611456869483   T   T   T
  0.0832252792112911  0.5788283651789925  0.4064130837160320   F   F   F
  0.4094069153238386  0.7366937593917795  0.5753969477452759   T   T   T
  0.8417638189206400  0.4138611795769620  0.4678389696388976   F   F   F
  0.0170894936360568  0.9628901032968358  0.3936113541928137   F   F   F
  0.0147002065988957  0.2565983380974899  0.3910814136036507   F   F   F
  0.0094058509879104  0.0871334064133959  0.5723787081473147   T   T   T
  0.6119848885707395  0.6321617737234360  0.6092995542871071   T   T   T
  0.2140128343756905  0.4484688051573840  0.5096990468829780   T   T   T
  0.9150621277607272  0.7279690018059668  0.4962545438487922   F   F   F
  0.5205785424525260  0.0828636904714202  0.4259865881079392   F   F   F
  0.4186250529177217  0.1415332096227873  0.5888412306759928   T   T   T
  0.0834525281222085  0.1115801414397239  0.4069808717903314   F   F   F
  0.7018979344879455  0.0172543188712027  0.4873230277072054   F   F   F
  0.6650593546056740  0.8704455278524108  0.4374764361266443   F   F   F
  0.6500987439622605  0.4764351214409217  0.4301508871204760   F   F   F
  0.1984606475206618  0.8848902957731681  0.4639906909803457   F   F   F
  0.2151052300409921  0.3394485462112114  0.6037055601163436   T   T   T
  0.6748437624644129  0.7874972065671891  0.5943200980126723   T   T   T
  0.2165148969241407  0.6142238467589841  0.5386423785967313   T   T   T
  0.3687891183512946  0.7075357976878891  0.4592092972079129   F   F   F
  0.7981294324829133  0.8617442896612797  0.5956508403021121   T   T   T
  0.8798018519231442  0.8847158065129862  0.5119050623732269   T   T   T
  0.5769011377210816  0.5475374395198694  0.5121512981410291   T   T   T
  0.5897954004780307  0.0879369452087034  0.5252408931765092   T   T   T
  0.8581223411646519  0.1245212967277993  0.4951759473310489   F   F   F
  0.8368792885475357  0.5769273181835706  0.6459578679824883   T   T   T
  0.1337385207486648  0.3327269680083376  0.3568722791356791   F   F   F
  0.7906552882913616  0.2523473100188554  0.4418726542293072   F   F   F
  0.3991760967689615  0.1499029083161005  0.3960031981861079   F   F   F
  0.8569483061763361  0.7234718293385467  0.5965546263535678   T   T   T
  0.2828340335356160  0.9068225460447813  0.5496766287939966   T   T   T
  0.0230747322536402  0.3028555789662022  0.5022455100715746   F   F   F
  0.5745593847912573  0.6678981453451485  0.4355643604055430   F   F   F
  0.2302409542041772  0.7250085609407009  0.4519695445397645   F   F   F
  0.5936538590930083  0.2569091287790819  0.5485158995773424   T   T   T
  0.9755207890239832  0.2446662279335527  0.6025226636060654   T   T   T
  0.8889063590224922  0.9978170632663748  0.4242001869335610   F   F   F
  0.1047587747845449  0.1677264091615831  0.5178220460423332   T   T   T
  0.0481456608521569  0.7054451578048813  0.4826301941714348   F   F   F
  0.2320899871160147  0.1781904968963507  0.5610246670349301   T   T   T
  0.5614078070497825  0.2301933341022675  0.3812261074005363   F   F   F
  0.4790725353639745  0.5987708498159842  0.6231681176387195   T   T   T
  0.2810814432527139  0.7431167528776337  0.5978561792213754   T   T   T
  0.2085008252580423  0.6158079088711403  0.3717945352858223   F   F   F
  0.7413226850413566  0.6842024892875822  0.5358902916759360   T   T   T
  0.9865001613976274  0.9627993675717478  0.5503482232313653   T   T   T
  0.7031045577904180  0.7092262175296540  0.4342603982179796   F   F   F
  0.7882026992292936  0.0322143939002447  0.5767102938569818   T   T   T
  0.4563138979678243  0.3008596593942130  0.4092878915485585   F   F   F
  0.4498680627433394  0.9074757384702582  0.5945938369214466   T   T   T
  0.5085956905810185  0.0128976784247341  0.5860619378880846   T   T   T
  0.2442471516429308  0.3428143882484846  0.4209471039025985   F   F   F
  0.6585253436744694  0.3024101752158046  0.4503479098948588   F   F   F
  0.4600589923584545  0.2910995867833365  0.5288815122795468   T   T   T
  0.3372993678081997  0.5623506061330303  0.3990830096962270   F   F   F
  0.8042973613348600  0.4496134132688897  0.5799743227450255   T   T   T
  0.0692097893475037  0.8712672200713243  0.4805055068825652   F   F   F
  0.2119075788177369  0.1168623856792763  0.3735965933534686   F   F   F
  0.0782328565913559  0.4663930594289312  0.4946876202126234   F   F   F
  0.5575701889191933  0.8247481629969755  0.4747302534090920   F   F   F
  0.7199569902963248  0.5580074207803144  0.6098385506705041   T   T   T
  0.2866421241915660  0.1825098029163215  0.4591107728955208   F   F   F
  0.0879276183112181  0.5977585390023236  0.5677506602381479   T   T   T
  0.3536606335290012  0.9908616380242811  0.5782494751315344   T   T   T
  0.4849697388122957  0.4534196768578119  0.5726161963048217   T   T   T
  0.5134439566485148  0.4657682555678823  0.6950650551107576   T   T   T

  0.00000000E+00  0.00000000E+00  0.00000000E+00
  0.00000000E+00  0.00000000E+00  0.00000000E+00
  0.00000000E+00  0.00000000E+00  0.00000000E+00
  0.00000000E+00  0.00000000E+00  0.00000000E+00
  0.00000000E+00  0.00000000E+00  0.00000000E+00
  0.00000000E+00  0.00000000E+00  0.00000000E+00
  0.00000000E+00  0.00000000E+00  0.00000000E+00
  0.00000000E+00  0.00000000E+00  0.00000000E+00
  0.00000000E+00  0.00000000E+00  0.00000000E+00
  0.00000000E+00  0.00000000E+00  0.00000000E+00
  0.00000000E+00  0.00000000E+00  0.00000000E+00
  0.00000000E+00  0.00000000E+00  0.00000000E+00
  0.00000000E+00  0.00000000E+00  0.00000000E+00
  0.00000000E+00  0.00000000E+00  0.00000000E+00
  0.00000000E+00  0.00000000E+00  0.00000000E+00
  0.00000000E+00  0.00000000E+00  0.00000000E+00
  0.00000000E+00  0.00000000E+00  0.00000000E+00
  0.00000000E+00  0.00000000E+00  0.00000000E+00
  0.00000000E+00  0.00000000E+00  0.00000000E+00
  0.00000000E+00  0.00000000E+00  0.00000000E+00
  0.00000000E+00  0.00000000E+00  0.00000000E+00
  0.00000000E+00  0.00000000E+00  0.00000000E+00
  0.00000000E+00  0.00000000E+00  0.00000000E+00
  0.00000000E+00  0.00000000E+00  0.00000000E+00
  0.00000000E+00  0.00000000E+00  0.00000000E+00
  0.00000000E+00  0.00000000E+00  0.00000000E+00
  0.00000000E+00  0.00000000E+00  0.00000000E+00
  0.00000000E+00  0.00000000E+00  0.00000000E+00
  0.00000000E+00  0.00000000E+00  0.00000000E+00
  0.00000000E+00  0.00000000E+00  0.00000000E+00
  0.00000000E+00  0.00000000E+00  0.00000000E+00
  0.00000000E+00  0.00000000E+00  0.00000000E+00
  0.00000000E+00  0.00000000E+00  0.00000000E+00
  0.00000000E+00  0.00000000E+00  0.00000000E+00
  0.00000000E+00  0.00000000E+00  0.00000000E+00
  0.00000000E+00  0.00000000E+00  0.00000000E+00
  0.00000000E+00  0.00000000E+00  0.00000000E+00
  0.00000000E+00  0.00000000E+00  0.00000000E+00
  0.00000000E+00  0.00000000E+00  0.00000000E+00
  0.00000000E+00  0.00000000E+00  0.00000000E+00
  0.00000000E+00  0.00000000E+00  0.00000000E+00
  0.00000000E+00  0.00000000E+00  0.00000000E+00
  0.00000000E+00  0.00000000E+00  0.00000000E+00
  0.00000000E+00  0.00000000E+00  0.00000000E+00
  0.00000000E+00  0.00000000E+00  0.00000000E+00
  0.00000000E+00  0.00000000E+00  0.00000000E+00
  0.00000000E+00  0.00000000E+00  0.00000000E+00
  0.00000000E+00  0.00000000E+00  0.00000000E+00
  0.00000000E+00  0.00000000E+00  0.00000000E+00
  0.00000000E+00  0.00000000E+00  0.00000000E+00
  0.00000000E+00  0.00000000E+00  0.00000000E+00
  0.00000000E+00  0.00000000E+00  0.00000000E+00
  0.00000000E+00  0.00000000E+00  0.00000000E+00
  0.00000000E+00  0.00000000E+00  0.00000000E+00
  0.00000000E+00  0.00000000E+00  0.00000000E+00
  0.00000000E+00  0.00000000E+00  0.00000000E+00
  0.00000000E+00  0.00000000E+00  0.00000000E+00
  0.00000000E+00  0.00000000E+00  0.00000000E+00
  0.00000000E+00  0.00000000E+00  0.00000000E+00
  0.00000000E+00  0.00000000E+00  0.00000000E+00
  0.00000000E+00  0.00000000E+00  0.00000000E+00
  0.00000000E+00  0.00000000E+00  0.00000000E+00
  0.00000000E+00  0.00000000E+00  0.00000000E+00
  0.00000000E+00  0.00000000E+00  0.00000000E+00
  0.00000000E+00  0.00000000E+00  0.00000000E+00
  0.00000000E+00  0.00000000E+00  0.00000000E+00
  0.00000000E+00  0.00000000E+00  0.00000000E+00
  0.00000000E+00  0.00000000E+00  0.00000000E+00
  0.00000000E+00  0.00000000E+00  0.00000000E+00
  0.00000000E+00  0.00000000E+00  0.00000000E+00
  0.00000000E+00  0.00000000E+00  0.00000000E+00
  0.00000000E+00  0.00000000E+00  0.00000000E+00
  0.00000000E+00  0.00000000E+00  0.00000000E+00
  0.00000000E+00  0.00000000E+00  0.00000000E+00
  0.00000000E+00  0.00000000E+00  0.00000000E+00
  0.00000000E+00  0.00000000E+00  0.00000000E+00
  0.00000000E+00  0.00000000E+00  0.00000000E+00
  0.00000000E+00  0.00000000E+00  0.00000000E+00
  0.00000000E+00  0.00000000E+00  0.00000000E+00
  0.00000000E+00  0.00000000E+00  0.00000000E+00
  0.00000000E+00  0.00000000E+00  0.00000000E+00
  0.00000000E+00  0.00000000E+00  0.00000000E+00
  0.00000000E+00  0.00000000E+00  0.00000000E+00
  0.00000000E+00  0.00000000E+00  0.00000000E+00
  0.00000000E+00  0.00000000E+00  0.00000000E+00
  0.00000000E+00  0.00000000E+00  0.00000000E+00
  0.00000000E+00  0.00000000E+00  0.00000000E+00
  0.00000000E+00  0.00000000E+00  0.00000000E+00
  0.00000000E+00  0.00000000E+00  0.00000000E+00
  0.00000000E+00  0.00000000E+00  0.00000000E+00
  0.00000000E+00  0.00000000E+00  0.00000000E+00
  0.00000000E+00  0.00000000E+00  0.00000000E+00
  0.00000000E+00  0.00000000E+00  0.00000000E+00
  0.00000000E+00  0.00000000E+00  0.00000000E+00
  0.00000000E+00  0.00000000E+00  0.00000000E+00
  0.00000000E+00  0.00000000E+00  0.00000000E+00
  0.00000000E+00  0.00000000E+00  0.00000000E+00
  0.00000000E+00  0.00000000E+00  0.00000000E+00
  0.00000000E+00  0.00000000E+00  0.00000000E+00
  0.00000000E+00  0.00000000E+00  0.00000000E+00
  0.00000000E+00  0.00000000E+00  0.00000000E+00
  0.00000000E+00  0.00000000E+00  0.00000000E+00
  0.00000000E+00  0.00000000E+00  0.00000000E+00
  0.00000000E+00  0.00000000E+00  0.00000000E+00
  0.00000000E+00  0.00000000E+00  0.00000000E+00
  0.00000000E+00  0.00000000E+00  0.00000000E+00
  0.00000000E+00  0.00000000E+00  0.00000000E+00
  0.00000000E+00  0.00000000E+00  0.00000000E+00
  0.00000000E+00  0.00000000E+00  0.00000000E+00
  0.00000000E+00  0.00000000E+00  0.00000000E+00
  0.00000000E+00  0.00000000E+00  0.00000000E+00
  0.00000000E+00  0.00000000E+00  0.00000000E+00
  0.00000000E+00  0.00000000E+00  0.00000000E+00
  0.00000000E+00  0.00000000E+00  0.00000000E+00
  0.00000000E+00  0.00000000E+00  0.00000000E+00
  0.00000000E+00  0.00000000E+00  0.00000000E+00
  0.00000000E+00  0.00000000E+00  0.00000000E+00
  0.00000000E+00  0.00000000E+00  0.00000000E+00
  0.00000000E+00  0.00000000E+00  0.00000000E+00
  0.00000000E+00  0.00000000E+00  0.00000000E+00
  0.00000000E+00  0.00000000E+00  0.00000000E+00
  0.00000000E+00  0.00000000E+00  0.00000000E+00
  0.00000000E+00  0.00000000E+00  0.00000000E+00
  0.00000000E+00  0.00000000E+00  0.00000000E+00
  0.00000000E+00  0.00000000E+00  0.00000000E+00
  0.00000000E+00  0.00000000E+00  0.00000000E+00
  0.00000000E+00  0.00000000E+00  0.00000000E+00
  0.00000000E+00  0.00000000E+00  0.00000000E+00
  0.00000000E+00  0.00000000E+00  0.00000000E+00
  0.00000000E+00  0.00000000E+00  0.00000000E+00
  0.00000000E+00  0.00000000E+00  0.00000000E+00
  0.00000000E+00  0.00000000E+00  0.00000000E+00
  0.00000000E+00  0.00000000E+00  0.00000000E+00
  0.00000000E+00  0.00000000E+00  0.00000000E+00
  0.00000000E+00  0.00000000E+00  0.00000000E+00
  0.00000000E+00  0.00000000E+00  0.00000000E+00
  0.00000000E+00  0.00000000E+00  0.00000000E+00
  0.00000000E+00  0.00000000E+00  0.00000000E+00
  0.00000000E+00  0.00000000E+00  0.00000000E+00
  0.00000000E+00  0.00000000E+00  0.00000000E+00
  0.00000000E+00  0.00000000E+00  0.00000000E+00
  0.00000000E+00  0.00000000E+00  0.00000000E+00
  0.00000000E+00  0.00000000E+00  0.00000000E+00
  0.00000000E+00  0.00000000E+00  0.00000000E+00
  0.00000000E+00  0.00000000E+00  0.00000000E+00
  0.00000000E+00  0.00000000E+00  0.00000000E+00
  0.00000000E+00  0.00000000E+00  0.00000000E+00
  0.00000000E+00  0.00000000E+00  0.00000000E+00
  0.00000000E+00  0.00000000E+00  0.00000000E+00
  0.00000000E+00  0.00000000E+00  0.00000000E+00
  0.00000000E+00  0.00000000E+00  0.00000000E+00
  0.00000000E+00  0.00000000E+00  0.00000000E+00
  0.00000000E+00  0.00000000E+00  0.00000000E+00
  0.00000000E+00  0.00000000E+00  0.00000000E+00
  0.00000000E+00  0.00000000E+00  0.00000000E+00
  0.00000000E+00  0.00000000E+00  0.00000000E+00
  0.00000000E+00  0.00000000E+00  0.00000000E+00
  0.00000000E+00  0.00000000E+00  0.00000000E+00
  0.00000000E+00  0.00000000E+00  0.00000000E+00
  0.00000000E+00  0.00000000E+00  0.00000000E+00
  0.00000000E+00  0.00000000E+00  0.00000000E+00
  0.00000000E+00  0.00000000E+00  0.00000000E+00
  0.00000000E+00  0.00000000E+00  0.00000000E+00
  0.00000000E+00  0.00000000E+00  0.00000000E+00
  0.00000000E+00  0.00000000E+00  0.00000000E+00
  0.00000000E+00  0.00000000E+00  0.00000000E+00
  0.00000000E+00  0.00000000E+00  0.00000000E+00
  0.00000000E+00  0.00000000E+00  0.00000000E+00
  0.00000000E+00  0.00000000E+00  0.00000000E+00
  0.00000000E+00  0.00000000E+00  0.00000000E+00
  0.00000000E+00  0.00000000E+00  0.00000000E+00
  0.00000000E+00  0.00000000E+00  0.00000000E+00
  0.00000000E+00  0.00000000E+00  0.00000000E+00
  0.00000000E+00  0.00000000E+00  0.00000000E+00
  0.00000000E+00  0.00000000E+00  0.00000000E+00
  0.00000000E+00  0.00000000E+00  0.00000000E+00
  0.00000000E+00  0.00000000E+00  0.00000000E+00
  0.00000000E+00  0.00000000E+00  0.00000000E+00
  0.00000000E+00  0.00000000E+00  0.00000000E+00
  0.00000000E+00  0.00000000E+00  0.00000000E+00
  0.00000000E+00  0.00000000E+00  0.00000000E+00
  0.00000000E+00  0.00000000E+00  0.00000000E+00
  0.00000000E+00  0.00000000E+00  0.00000000E+00
  0.00000000E+00  0.00000000E+00  0.00000000E+00
  0.00000000E+00  0.00000000E+00  0.00000000E+00
  0.00000000E+00  0.00000000E+00  0.00000000E+00
  0.00000000E+00  0.00000000E+00  0.00000000E+00
  0.00000000E+00  0.00000000E+00  0.00000000E+00
  0.00000000E+00  0.00000000E+00  0.00000000E+00
  0.00000000E+00  0.00000000E+00  0.00000000E+00
  0.00000000E+00  0.00000000E+00  0.00000000E+00
  0.00000000E+00  0.00000000E+00  0.00000000E+00
  0.00000000E+00  0.00000000E+00  0.00000000E+00