 C  H  O Si  W                          
    1.000000000000000     
    23.4112945954000011    0.0000000000000000    0.0000000000000000
     0.0000000000000000   18.1212369513999967    0.0000000000000000
     0.0000000000000000    0.0000000000000000   26.8833665072999999
   C    H    O    Si   W 
     4    52   154    65     1
Selective dynamics
Direct
  0.5540732714731291  0.4688562556284737  0.7265282127195221   T   T   T
  0.5204142280310720  0.5190697364605796  0.7586785098320235   T   T   T
  0.5679295907459689  0.3898392179849139  0.7420025878632401   T   T   T
  0.5390199539215601  0.5989546517321074  0.7675830233007943   T   T   T
  0.7608936090052723  0.1031404599628942  0.6512012135445389   F   F   F
  0.9264276758775409  0.2786689628389283  0.3563349293400009   F   F   F
  0.7933396966928186  0.2072788972396751  0.3734565163880745   F   F   F
  0.9745391127316694  0.9436086005532900  0.3253027906056829   F   F   F
  0.6257326647787878  0.9634728499897562  0.3752311999972449   F   F   F
  0.8205383986272707  0.9950066635937915  0.3689926296547128   F   F   F
  0.7499930738495308  0.1411787558468731  0.4580381926778543   F   F   F
  0.9154360038818652  0.2494616864232668  0.5091961028794572   F   F   F
  0.5834928632816769  0.3042635462298904  0.3059271726651787   F   F   F
  0.8915069952552628  0.3348475880787447  0.6160643181993137   F   F   F
  0.5905366765096005  0.3602234834158153  0.6143520556382001   F   F   F
  0.5930028173156074  0.8694758607020248  0.5780191367204495   F   F   F
  0.0340494193692393  0.3380053426885965  0.6518239936087085   F   F   F
  0.9352705076763712  0.4195142257503406  0.4541014552468710   F   F   F
  0.7461383787735159  0.5303119924306614  0.4224881911837883   F   F   F
  0.7983842285282350  0.3817517170977709  0.6347912240633633   F   F   F
  0.5911020174091490  0.5686828267211084  0.3780347436188976   F   F   F
  0.7184337867802384  0.6459327858135424  0.3834605945055571   F   F   F
  0.8411529142292764  0.5424265960688572  0.4195961671555111   F   F   F
  0.0047645486475076  0.6037981492295330  0.3577783004107076   F   F   F
  0.8283586993267491  0.7123566734117333  0.4679422553080954   F   F   F
  0.8765835219538118  0.5988571277265393  0.7215975583667316   F   F   F
  0.5199903139612303  0.9855647615614487  0.4217030704774842   F   F   F
  0.2230945721612159  0.9801548351936802  0.3932050219465495   F   F   F
  0.2163736907482345  0.2378514580028224  0.3192303272980936   F   F   F
  0.1575010503616241  0.3298062300070157  0.2789829167401123   F   F   F
  0.3415468765692253  0.1555857055490506  0.3307727584112428   F   F   F
  0.2227158616647102  0.0457589260230407  0.3227384335196248   F   F   F
  0.5108750109528089  0.8268689922587598  0.5466517767751000   F   F   F
  0.3750871182708480  0.2414018968915954  0.6479435335667389   F   F   F
  0.2433413387235461  0.0931352969803640  0.5986058330078805   F   F   F
  0.3153809713091036  0.4871364645735810  0.4424346656312608   F   F   F
  0.4089561837294582  0.4387348586869422  0.4056905975982730   F   F   F
  0.3984995032241372  0.7931136076499854  0.3887867966224334   F   F   F
  0.2442023571188656  0.6554300787776768  0.2943268807443218   F   F   F
  0.3117413815567005  0.4184757135367221  0.3692576443915385   F   F   F
  0.4054742948844066  0.5842796534641153  0.3388198885480591   F   F   F
  0.1393576205880507  0.4879736465794622  0.3519294596467617   F   F   F
  0.5932693451318087  0.6979871284243586  0.3523979868156601   F   F   F
  0.4690068301459220  0.8614274692379169  0.4438283837725479   F   F   F
  0.1219514624773055  0.3228303239123846  0.6116341077926037   F   F   F
  0.0720641560890982  0.6657867549692611  0.6454374230288593   F   F   F
  0.2427332385930896  0.3853627819272134  0.6825228855037651   F   F   F
  0.2470502034404305  0.8155401063326266  0.6695846801536831   F   F   F
  0.5882139774758173  0.4962222975824560  0.7052506216337946   T   T   T
  0.5001348803867671  0.4929378882140796  0.7910418978232414   T   T   T
  0.6065775427493350  0.3884224281243434  0.7655626678681884   T   T   T
  0.5323104655505020  0.3663282408587918  0.7634202556890486   T   T   T
  0.5758405028821443  0.3539797295634912  0.7096623879165591   T   T   T
  0.5689697008902002  0.6009834585771117  0.7992484622089009   T   T   T
  0.5608342433063456  0.6218129923642337  0.7348116545654051   T   T   T
  0.5024099392458155  0.6348135175992056  0.7762624605634443   T   T   T
  0.3689417337945073  0.6483550974205130  0.4390000177989322   F   F   F
  0.3468156499810249  0.5040338679473777  0.4203881275781143   F   F   F
  0.8607143475699957  0.5660234696167166  0.6967477405926132   F   F   F
  0.3486825439115648  0.9599258809537332  0.5305504712094162   F   F   F
  0.0334499210939683  0.9325616971673583  0.5285372124023979   F   F   F
  0.6363554822990451  0.0788685455599989  0.4893766723794641   F   F   F
  0.0686461464807948  0.0522654214745515  0.3951107345583225   F   F   F
  0.4518995424319527  0.1295623248292515  0.4205972814427668   F   F   F
  0.8058841492861291  0.2136501796918466  0.4831666074103040   F   F   F
  0.9731215137610008  0.1815354833555247  0.5987843307597984   F   F   F
  0.2747652928840907  0.2991728710101214  0.4485122250900346   F   F   F
  0.5563541661963498  0.7750912911781072  0.4417510122690658   F   F   F
  0.3911972788143601  0.9746697942537708  0.6195455558273721   F   F   F
  0.1775172398589788  0.3499684493290118  0.4052731245300478   F   F   F
  0.8664183228466911  0.6840037200852720  0.6372976575749121   F   F   F
  0.8656960102276017  0.9671769320775354  0.4670384592975196   F   F   F
  0.3010471365896024  0.7609368348742791  0.4579252567998537   F   F   F
  0.4216109456219570  0.2612522170148708  0.3795963030273342   F   F   F
  0.8112691140165680  0.4652967016259737  0.5202016942102787   F   F   F
  0.9834757181123237  0.0727601931945614  0.5212555787827640   F   F   F
  0.5104293376629272  0.4626369277718325  0.6288422264380316   F   F   F
  0.0345364061182565  0.9199477616519545  0.4294052572495062   F   F   F
  0.9630365419446250  0.3031953079439518  0.3512576249606170   F   F   F
  0.0696266904488567  0.3361057655302346  0.3763717815531962   F   F   F
  0.2082956575310035  0.7286442941956537  0.3953601014000157   F   F   F
  0.0389012629134911  0.4191019155796809  0.4991087535393461   F   F   F
  0.2396947949274733  0.2859400673692818  0.5878322714738786   F   F   F
  0.3968738497103530  0.1960472273426959  0.6451684260480519   F   F   F
  0.4546782875160176  0.5642425873579526  0.5797303923929249   F   F   F
  0.9096900981301346  0.7491339501171055  0.5574774566265219   F   F   F
  0.8691272713299156  0.1080433423588048  0.4422783307318099   F   F   F
  0.5725767945756743  0.6673318528661909  0.3761317316733468   F   F   F
  0.1424265590957958  0.1591254988132746  0.3759722435750490   F   F   F
  0.3510665540401590  0.7651090924257318  0.6066402162036155   F   F   F
  0.9109960497951874  0.8450475714254182  0.4831796236075121   F   F   F
  0.0613380104910135  0.5368717058331640  0.4422534820284341   F   F   F
  0.7083390277084121  0.5551665518466606  0.4199576800001736   F   F   F
  0.0754872572765848  0.8168068048942771  0.4829941554854784   F   F   F
  0.7004647711973604  0.8275557150113073  0.4326352913293690   F   F   F
  0.7300567892244203  0.0489350362286984  0.5430232460267206   F   F   F
  0.9189481702030449  0.3020166757735581  0.6320743471588557   F   F   F
  0.7347751277124175  0.8526424153139871  0.6129000103144406   F   F   F
  0.6251219543867705  0.5273940020615839  0.4863787091564404   F   F   F
  0.5565732987385132  0.6297030403834256  0.4672494240254110   F   F   F
  0.4252443652502720  0.2485898121585635  0.5559600190171778   F   F   F
  0.9782900938336425  0.7282436336050182  0.4767956400891720   F   F   F
  0.6540718392621301  0.5935183080713458  0.6333446894638115   F   F   F
  0.3967970898105762  0.7470675371308531  0.5150782427089808   F   F   F
  0.6026900685395375  0.5176654517715136  0.3856709925442061   F   F   F
  0.7200925147661721  0.6300696656976328  0.5569385707155519   F   F   F
  0.1468054759838111  0.3640245541953675  0.6198784647731301   F   F   F
  0.0665830669991081  0.5486182031612827  0.5419674824832441   F   F   F
  0.8188323700302718  0.8845836183519253  0.5366196927337299   F   F   F
  0.8282155306614527  0.3553851427237973  0.4519033357708793   F   F   F
  0.5273439914707438  0.2987494183493880  0.5326219080281120   F   F   F
  0.7369826441830725  0.4983428844823337  0.5956550509738818   F   F   F
  0.5574339360995921  0.1724311051770471  0.3949085375269945   F   F   F
  0.8059640829904495  0.2564125704700402  0.3832928600033014   F   F   F
  0.2374462167629616  0.9532507504721153  0.5079195554207132   F   F   F
  0.6922821581142600  0.7749402632967133  0.5419258244869454   F   F   F
  0.9238122464576648  0.9497799864224703  0.5529781065812713   F   F   F
  0.5257372223541736  0.3177811195808147  0.3985559351687087   F   F   F
  0.4673313188586619  0.9929243998683930  0.5461139212484838   F   F   F
  0.8375600614801542  0.0948192420088034  0.5397437714924251   F   F   F
  0.5379032530424510  0.1164174893117362  0.4862370923690094   F   F   F
  0.3501934425152129  0.1866087324322407  0.4396363938456389   F   F   F
  0.0117603228167908  0.9624138998997935  0.3352437574830063   F   F   F
  0.4510944574302016  0.5936127491807710  0.6734365273060661   F   F   F
  0.6549652215522386  0.9253975043083074  0.3792282539811964   F   F   F
  0.0762933429470323  0.6860262574042792  0.4358810225764742   F   F   F
  0.4526345899177855  0.4055130732900665  0.5522594808228831   F   F   F
  0.7192194366265099  0.7004208513439565  0.3795829994963285   F   F   F
  0.4522030534528128  0.7064845452655035  0.5991491283238162   F   F   F
  0.7525510591055777  0.7093245754016806  0.4762954835743187   F   F   F
  0.7784781792968047  0.1208648319016419  0.6208248789211339   F   F   F
  0.9932746155468877  0.3080134734220721  0.4484029789284989   F   F   F
  0.5352783145720466  0.5080084713707862  0.5325944019056834   F   F   F
  0.8167775852155614  0.4990617344698620  0.4234422052650615   F   F   F
  0.2356404490033555  0.1452069286239777  0.6053669370836730   F   F   F
  0.2035333057163413  0.8307013160788728  0.4705336293601903   F   F   F
  0.2399989934233844  0.5589046256984602  0.5228980986897511   F   F   F
  0.0612835681934030  0.6255319596413074  0.6236673544607925   F   F   F
  0.0460740722049948  0.6023466921755443  0.3541786312221902   F   F   F
  0.8005818475866420  0.9785485708906165  0.6057467146885003   F   F   F
  0.5379909097114037  0.0276974917800175  0.4045027517534763   F   F   F
  0.6064116535639101  0.3126152628166210  0.6050846472179501   F   F   F
  0.8615461075340960  0.0040808494918636  0.3692063291070653   F   F   F
  0.0949113079819810  0.1490228354028815  0.4670823258906296   F   F   F
  0.1714019683059433  0.2041083621037245  0.5309172793192403   F   F   F
  0.6409886548841044  0.7044387202342079  0.4548155821771758   F   F   F
  0.4367877834064799  0.4097684809000555  0.3864132536704119   F   F   F
  0.5736735726527229  0.0594896353027679  0.5713422021513495   F   F   F
  0.1514377462021059  0.5934080234999826  0.3889583608347777   F   F   F
  0.2677397900769023  0.6023375314212132  0.3923062966030031   F   F   F
  0.4402584600309112  0.3221981823130449  0.4703244327181508   F   F   F
  0.2380096658898907  0.1585111293566044  0.4299011866524154   F   F   F
  0.0727480732995218  0.1501835783807124  0.5625410381897211   F   F   F
  0.8450568849278000  0.5438564130039154  0.5999387536089671   F   F   F
  0.6211794284267498  0.2799398765994923  0.4109054511829981   F   F   F
  0.6026669933739228  0.8915266658304475  0.4672234595428861   F   F   F
  0.0313853912181870  0.1952898291212790  0.3889918752683101   F   F   F
  0.6077717809738488  0.1957211627766497  0.5471651730256966   F   F   F
  0.1327997263300347  0.9383546445758171  0.4794870772378772   F   F   F
  0.0802538556686514  0.2803863051306763  0.5115883143106927   F   F   F
  0.3720449588138734  0.1065224023258438  0.5685070964771555   F   F   F
  0.0666984389220886  0.6970136619783034  0.5357169493636817   F   F   F
  0.6664883802866157  0.4153848775992941  0.4300115561107631   F   F   F
  0.7992345205773930  0.7294614049578954  0.5641082798991519   F   F   F
  0.7038385586134339  0.9572084333329656  0.4701845621740759   F   F   F
  0.5982481249057585  0.6351908085168532  0.5530601950260348   F   F   F
  0.7228402998664549  0.2936846541148483  0.4516681052539582   F   F   F
  0.9775406258336119  0.3141694561251853  0.5472386400330649   F   F   F
  0.1585508128100059  0.6302275213052937  0.5706796114121602   F   F   F
  0.6333338448107071  0.3267830793000925  0.5078007023299378   F   F   F
  0.8202365698723071  0.3960122504291590  0.6056683834065169   F   F   F
  0.9585781980894978  0.0272430444030434  0.4169530046787955   F   F   F
  0.2820011997251655  0.1950572684790117  0.5186423440800780   F   F   F
  0.2492575497532457  0.4430328891806070  0.4610556955705079   F   F   F
  0.2733868902128478  0.8507071670982782  0.5691579020746573   F   F   F
  0.2036681493187373  0.6855731694819696  0.4868887178860462   F   F   F
  0.1471234534495878  0.4760698767055516  0.4925449251270066   F   F   F
  0.2244991729365609  0.4228013705296547  0.5568070263411968   F   F   F
  0.9114169782859136  0.4527445982196738  0.4737188145108959   F   F   F
  0.8697881761182842  0.7045601105568409  0.4641535209108483   F   F   F
  0.7381202078118392  0.0928346185702935  0.4452296472671975   F   F   F
  0.2221834364607460  0.9297811898377830  0.4079468165165281   F   F   F
  0.2520627239845439  0.4022139245040464  0.6493030526996222   F   F   F
  0.6298882997365922  0.8819738399582775  0.5936979842955310   F   F   F
  0.4102232653459481  0.7890623920405417  0.4234373851432949   F   F   F
  0.9177713527308597  0.1960382937010650  0.5082451459005242   F   F   F
  0.1325470584190001  0.4435361138679994  0.3322726622007863   F   F   F
  0.1551476808853849  0.3035232552477680  0.3105604161752922   F   F   F
  0.3730051452693530  0.1309070432977180  0.3479534200993726   F   F   F
  0.0345847447092922  0.2918937194036886  0.6334482689477170   F   F   F
  0.5726892607782261  0.2568681914203168  0.3200996781806822   F   F   F
  0.2461267808220811  0.7705349765418887  0.6500765042603263   F   F   F
  0.2073742988973706  0.6484050497390186  0.3103690611938177   F   F   F
  0.2753744117793318  0.3921912990854679  0.3673758273212613   F   F   F
  0.3653508124869589  0.5975866322176486  0.3422207943191111   F   F   F
  0.2263808502218509  0.0561808240814585  0.3581188824802055   F   F   F
  0.2412033350308818  0.1960782276637332  0.3293429668079639   F   F   F
  0.5012729261715734  0.8923016219130631  0.4548416832162587   F   F   F
  0.5498542905056212  0.8276463558861735  0.5343044028066402   F   F   F
  0.5446517239301372  0.6445311039299142  0.6346630755300424   F   F   F
  0.4779945193882043  0.1237787136609327  0.5967018205527239   F   F   F
  0.2627342198307048  0.6949829586939202  0.5684034253244477   F   F   F
  0.4418004971013261  0.8490648519801240  0.5807429800315091   F   F   F
  0.7654811526320060  0.6165665853588749  0.6494118932027675   F   F   F
  0.8446094558901436  0.8315847908216227  0.6229614404079484   F   F   F
  0.6396050875393513  0.7388311010458892  0.6219306298445133   F   F   F
  0.0081441768126709  0.0334162880549869  0.6029969814690119   F   F   F
  0.2838692295527423  0.0034925839553637  0.5933284270516950   F   F   F
  0.5026671480867293  0.9728059405147960  0.6283462796920176   F   F   F
  0.4261963015072112  0.4302565354961132  0.7145811519825713   T   T   T
  0.0832252792583148  0.6064203007651798  0.4064130837160320   F   F   F
  0.4094087258180892  0.7667447463378139  0.5741482989326414   F   F   F
  0.8417638189676637  0.4414531151631493  0.4678389696388976   F   F   F
  0.0170894936830805  0.9904820388830231  0.3936113541928137   F   F   F
  0.0147002066459194  0.2841902736836772  0.3910814136036507   F   F   F
  0.0092204699262481  0.1150392342395392  0.5725038683330297   F   F   F
  0.6092253132733134  0.6569732768690457  0.6111926225299413   F   F   F
  0.2139934172433300  0.4759907272983952  0.5097342052578711   F   F   F
  0.9150621278077509  0.7555609373921541  0.4962545438487922   F   F   F
  0.5205785424995497  0.1104556260576075  0.4259865881079392   F   F   F
  0.4180573096333333  0.1710436328114824  0.5895650500763807   F   F   F
  0.0834525281692322  0.1391720770259113  0.4069808717903314   F   F   F
  0.7018979345349692  0.0448462544573900  0.4873230277072054   F   F   F
  0.6650593546526977  0.8980374634385981  0.4374764361266443   F   F   F
  0.6500987440092842  0.5040270570271090  0.4301508871204760   F   F   F
  0.1984606475676856  0.9124822313593555  0.4639906909803457   F   F   F
  0.2143787757058320  0.3666014000950213  0.6035779875311036   F   F   F
  0.6733080226178316  0.8126567980044328  0.5950375655000926   F   F   F
  0.2168919508917284  0.6418754399413871  0.5385697318960752   F   F   F
  0.3687891183983183  0.7351277332740764  0.4592092972079129   F   F   F
  0.7971970911095596  0.8883099295426931  0.5956062553364418   F   F   F
  0.8797662953266112  0.9122561328392607  0.5119953192282480   F   F   F
  0.5767815036815449  0.5749883910979321  0.5121699030781883   F   F   F
  0.5898551720932588  0.1156599320729015  0.5251669947710411   F   F   F
  0.8581223412116756  0.1521132323139867  0.4951759473310489   F   F   F
  0.8354512531181157  0.6035002549531896  0.6458913903864882   F   F   F
  0.1337385207956885  0.3603189035945249  0.3568722791356791   F   F   F
  0.7906552883383853  0.2799392456050427  0.4418726542293072   F   F   F
  0.3991760968159852  0.1774948439022879  0.3960031981861079   F   F   F
  0.8558818644618427  0.7499908499923720  0.5964930132474251   F   F   F
  0.2830429826191079  0.9355319932780333  0.5496781561172170   F   F   F
  0.0230747323006639  0.3304475145523895  0.5022455100715746   F   F   F
  0.5745593848382811  0.6954900809313358  0.4355643604055430   F   F   F
  0.2302409542512009  0.7526004965268882  0.4519695445397645   F   F   F
  0.5936894427243402  0.2841317484736905  0.5482276725802464   F   F   F
  0.9751963353895832  0.2723143519212314  0.6026455486750706   F   F   F
  0.8889063590695159  0.0254089988525621  0.4242001869335610   F   F   F
  0.1046927278237959  0.1954687303120650  0.5177495226813988   F   F   F
  0.0481456608991806  0.7330370933910686  0.4826301941714348   F   F   F
  0.2319296408203044  0.2058428597194393  0.5610456812301976   F   F   F
  0.5614078070968063  0.2577852696884548  0.3812261074005363   F   F   F
  0.4762436208052776  0.6282272613495223  0.6207291194637108   F   F   F
  0.2819259759153709  0.7708325599592669  0.5977343321794208   F   F   F
  0.2085008253050660  0.6433998444573277  0.3717945352858223   F   F   F
  0.7403106278081566  0.7100728697067709  0.5358705706084734   F   F   F
  0.9865313784600360  0.9906022954250844  0.5503619275563878   F   F   F
  0.7031045578374417  0.7368181531158413  0.4342603982179796   F   F   F
  0.7878175579618727  0.0593395379264905  0.5767650539712719   F   F   F
  0.4563138980148480  0.3284515949804003  0.4092878915485585   F   F   F
  0.4487211643210500  0.9378142370417422  0.5940551759192232   F   F   F
  0.5079150387890863  0.0426196756262840  0.5862371086114422   F   F   F
  0.2442471516899545  0.3704063238346720  0.4209471039025985   F   F   F
  0.6585253437214931  0.3300021108019919  0.4503479098948588   F   F   F
  0.4601885807254291  0.3189655435422196  0.5289541950387573   F   F   F
  0.3372993678552234  0.5899425417192177  0.3990830096962270   F   F   F
  0.8034804372750060  0.4760237340706297  0.5798853742994297   F   F   F
  0.0692097893945274  0.8988591556575116  0.4805055068825652   F   F   F
  0.2119075788647606  0.1444543212654636  0.3735965933534686   F   F   F
  0.0782328566383796  0.4939849950151185  0.4946876202126234   F   F   F
  0.5575701889662170  0.8523400985831628  0.4747302534090920   F   F   F
  0.7184052183238450  0.5839684830708549  0.6095744356201678   F   F   F
  0.2866421242385897  0.2101017385025088  0.4591107728955208   F   F   F
  0.0883525602462925  0.6256318263611931  0.5676340396121518   F   F   F
  0.3528606248841157  0.0210298111654765  0.5781697720469481   F   F   F
  0.4863662067138890  0.4815225366814460  0.5723848060077543   F   F   F
  0.4743021753719603  0.4942069529147233  0.6919545760417585   T   T   T
 
  0.00000000E+00  0.00000000E+00  0.00000000E+00
  0.00000000E+00  0.00000000E+00  0.00000000E+00
  0.00000000E+00  0.00000000E+00  0.00000000E+00
  0.00000000E+00  0.00000000E+00  0.00000000E+00
  0.00000000E+00  0.00000000E+00  0.00000000E+00
  0.00000000E+00  0.00000000E+00  0.00000000E+00
  0.00000000E+00  0.00000000E+00  0.00000000E+00
  0.00000000E+00  0.00000000E+00  0.00000000E+00
  0.00000000E+00  0.00000000E+00  0.00000000E+00
  0.00000000E+00  0.00000000E+00  0.00000000E+00
  0.00000000E+00  0.00000000E+00  0.00000000E+00
  0.00000000E+00  0.00000000E+00  0.00000000E+00
  0.00000000E+00  0.00000000E+00  0.00000000E+00
  0.00000000E+00  0.00000000E+00  0.00000000E+00
  0.00000000E+00  0.00000000E+00  0.00000000E+00
  0.00000000E+00  0.00000000E+00  0.00000000E+00
  0.00000000E+00  0.00000000E+00  0.00000000E+00
  0.00000000E+00  0.00000000E+00  0.00000000E+00
  0.00000000E+00  0.00000000E+00  0.00000000E+00
  0.00000000E+00  0.00000000E+00  0.00000000E+00
  0.00000000E+00  0.00000000E+00  0.00000000E+00
  0.00000000E+00  0.00000000E+00  0.00000000E+00
  0.00000000E+00  0.00000000E+00  0.00000000E+00
  0.00000000E+00  0.00000000E+00  0.00000000E+00
  0.00000000E+00  0.00000000E+00  0.00000000E+00
  0.00000000E+00  0.00000000E+00  0.00000000E+00
  0.00000000E+00  0.00000000E+00  0.00000000E+00
  0.00000000E+00  0.00000000E+00  0.00000000E+00
  0.00000000E+00  0.00000000E+00  0.00000000E+00
  0.00000000E+00  0.00000000E+00  0.00000000E+00
  0.00000000E+00  0.00000000E+00  0.00000000E+00
  0.00000000E+00  0.00000000E+00  0.00000000E+00
  0.00000000E+00  0.00000000E+00  0.00000000E+00
  0.00000000E+00  0.00000000E+00  0.00000000E+00
  0.00000000E+00  0.00000000E+00  0.00000000E+00
  0.00000000E+00  0.00000000E+00  0.00000000E+00
  0.00000000E+00  0.00000000E+00  0.00000000E+00
  0.00000000E+00  0.00000000E+00  0.00000000E+00
  0.00000000E+00  0.00000000E+00  0.00000000E+00
  0.00000000E+00  0.00000000E+00  0.00000000E+00
  0.00000000E+00  0.00000000E+00  0.00000000E+00
  0.00000000E+00  0.00000000E+00  0.00000000E+00
  0.00000000E+00  0.00000000E+00  0.00000000E+00
  0.00000000E+00  0.00000000E+00  0.00000000E+00
  0.00000000E+00  0.00000000E+00  0.00000000E+00
  0.00000000E+00  0.00000000E+00  0.00000000E+00
  0.00000000E+00  0.00000000E+00  0.00000000E+00
  0.00000000E+00  0.00000000E+00  0.00000000E+00
  0.00000000E+00  0.00000000E+00  0.00000000E+00
  0.00000000E+00  0.00000000E+00  0.00000000E+00
  0.00000000E+00  0.00000000E+00  0.00000000E+00
  0.00000000E+00  0.00000000E+00  0.00000000E+00
  0.00000000E+00  0.00000000E+00  0.00000000E+00
  0.00000000E+00  0.00000000E+00  0.00000000E+00
  0.00000000E+00  0.00000000E+00  0.00000000E+00
  0.00000000E+00  0.00000000E+00  0.00000000E+00
  0.00000000E+00  0.00000000E+00  0.00000000E+00
  0.00000000E+00  0.00000000E+00  0.00000000E+00
  0.00000000E+00  0.00000000E+00  0.00000000E+00
  0.00000000E+00  0.00000000E+00  0.00000000E+00
  0.00000000E+00  0.00000000E+00  0.00000000E+00
  0.00000000E+00  0.00000000E+00  0.00000000E+00
  0.00000000E+00  0.00000000E+00  0.00000000E+00
  0.00000000E+00  0.00000000E+00  0.00000000E+00
  0.00000000E+00  0.00000000E+00  0.00000000E+00
  0.00000000E+00  0.00000000E+00  0.00000000E+00
  0.00000000E+00  0.00000000E+00  0.00000000E+00
  0.00000000E+00  0.00000000E+00  0.00000000E+00
  0.00000000E+00  0.00000000E+00  0.00000000E+00
  0.00000000E+00  0.00000000E+00  0.00000000E+00
  0.00000000E+00  0.00000000E+00  0.00000000E+00
  0.00000000E+00  0.00000000E+00  0.00000000E+00
  0.00000000E+00  0.00000000E+00  0.00000000E+00
  0.00000000E+00  0.00000000E+00  0.00000000E+00
  0.00000000E+00  0.00000000E+00  0.00000000E+00
  0.00000000E+00  0.00000000E+00  0.00000000E+00
  0.00000000E+00  0.00000000E+00  0.00000000E+00
  0.00000000E+00  0.00000000E+00  0.00000000E+00
  0.00000000E+00  0.00000000E+00  0.00000000E+00
  0.00000000E+00  0.00000000E+00  0.00000000E+00
  0.00000000E+00  0.00000000E+00  0.00000000E+00
  0.00000000E+00  0.00000000E+00  0.00000000E+00
  0.00000000E+00  0.00000000E+00  0.00000000E+00
  0.00000000E+00  0.00000000E+00  0.00000000E+00
  0.00000000E+00  0.00000000E+00  0.00000000E+00
  0.00000000E+00  0.00000000E+00  0.00000000E+00
  0.00000000E+00  0.00000000E+00  0.00000000E+00
  0.00000000E+00  0.00000000E+00  0.00000000E+00
  0.00000000E+00  0.00000000E+00  0.00000000E+00
  0.00000000E+00  0.00000000E+00  0.00000000E+00
  0.00000000E+00  0.00000000E+00  0.00000000E+00
  0.00000000E+00  0.00000000E+00  0.00000000E+00
  0.00000000E+00  0.00000000E+00  0.00000000E+00
  0.00000000E+00  0.00000000E+00  0.00000000E+00
  0.00000000E+00  0.00000000E+00  0.00000000E+00
  0.00000000E+00  0.00000000E+00  0.00000000E+00
  0.00000000E+00  0.00000000E+00  0.00000000E+00
  0.00000000E+00  0.00000000E+00  0.00000000E+00
  0.00000000E+00  0.00000000E+00  0.00000000E+00
  0.00000000E+00  0.00000000E+00  0.00000000E+00
  0.00000000E+00  0.00000000E+00  0.00000000E+00
  0.00000000E+00  0.00000000E+00  0.00000000E+00
  0.00000000E+00  0.00000000E+00  0.00000000E+00
  0.00000000E+00  0.00000000E+00  0.00000000E+00
  0.00000000E+00  0.00000000E+00  0.00000000E+00
  0.00000000E+00  0.00000000E+00  0.00000000E+00
  0.00000000E+00  0.00000000E+00  0.00000000E+00
  0.00000000E+00  0.00000000E+00  0.00000000E+00
  0.00000000E+00  0.00000000E+00  0.00000000E+00
  0.00000000E+00  0.00000000E+00  0.00000000E+00
  0.00000000E+00  0.00000000E+00  0.00000000E+00
  0.00000000E+00  0.00000000E+00  0.00000000E+00
  0.00000000E+00  0.00000000E+00  0.00000000E+00
  0.00000000E+00  0.00000000E+00  0.00000000E+00
  0.00000000E+00  0.00000000E+00  0.00000000E+00
  0.00000000E+00  0.00000000E+00  0.00000000E+00
  0.00000000E+00  0.00000000E+00  0.00000000E+00
  0.00000000E+00  0.00000000E+00  0.00000000E+00
  0.00000000E+00  0.00000000E+00  0.00000000E+00
  0.00000000E+00  0.00000000E+00  0.00000000E+00
  0.00000000E+00  0.00000000E+00  0.00000000E+00
  0.00000000E+00  0.00000000E+00  0.00000000E+00
  0.00000000E+00  0.00000000E+00  0.00000000E+00
  0.00000000E+00  0.00000000E+00  0.00000000E+00
  0.00000000E+00  0.00000000E+00  0.00000000E+00
  0.00000000E+00  0.00000000E+00  0.00000000E+00
  0.00000000E+00  0.00000000E+00  0.00000000E+00
  0.00000000E+00  0.00000000E+00  0.00000000E+00
  0.00000000E+00  0.00000000E+00  0.00000000E+00
  0.00000000E+00  0.00000000E+00  0.00000000E+00
  0.00000000E+00  0.00000000E+00  0.00000000E+00
  0.00000000E+00  0.00000000E+00  0.00000000E+00
  0.00000000E+00  0.00000000E+00  0.00000000E+00
  0.00000000E+00  0.00000000E+00  0.00000000E+00
  0.00000000E+00  0.00000000E+00  0.00000000E+00
  0.00000000E+00  0.00000000E+00  0.00000000E+00
  0.00000000E+00  0.00000000E+00  0.00000000E+00
  0.00000000E+00  0.00000000E+00  0.00000000E+00
  0.00000000E+00  0.00000000E+00  0.00000000E+00
  0.00000000E+00  0.00000000E+00  0.00000000E+00
  0.00000000E+00  0.00000000E+00  0.00000000E+00
  0.00000000E+00  0.00000000E+00  0.00000000E+00
  0.00000000E+00  0.00000000E+00  0.00000000E+00
  0.00000000E+00  0.00000000E+00  0.00000000E+00
  0.00000000E+00  0.00000000E+00  0.00000000E+00
  0.00000000E+00  0.00000000E+00  0.00000000E+00
  0.00000000E+00  0.00000000E+00  0.00000000E+00
  0.00000000E+00  0.00000000E+00  0.00000000E+00
  0.00000000E+00  0.00000000E+00  0.00000000E+00
  0.00000000E+00  0.00000000E+00  0.00000000E+00
  0.00000000E+00  0.00000000E+00  0.00000000E+00
  0.00000000E+00  0.00000000E+00  0.00000000E+00
  0.00000000E+00  0.00000000E+00  0.00000000E+00
  0.00000000E+00  0.00000000E+00  0.00000000E+00
  0.00000000E+00  0.00000000E+00  0.00000000E+00
  0.00000000E+00  0.00000000E+00  0.00000000E+00
  0.00000000E+00  0.00000000E+00  0.00000000E+00
  0.00000000E+00  0.00000000E+00  0.00000000E+00
  0.00000000E+00  0.00000000E+00  0.00000000E+00
  0.00000000E+00  0.00000000E+00  0.00000000E+00
  0.00000000E+00  0.00000000E+00  0.00000000E+00
  0.00000000E+00  0.00000000E+00  0.00000000E+00
  0.00000000E+00  0.00000000E+00  0.00000000E+00
  0.00000000E+00  0.00000000E+00  0.00000000E+00
  0.00000000E+00  0.00000000E+00  0.00000000E+00
  0.00000000E+00  0.00000000E+00  0.00000000E+00
  0.00000000E+00  0.00000000E+00  0.00000000E+00
  0.00000000E+00  0.00000000E+00  0.00000000E+00
  0.00000000E+00  0.00000000E+00  0.00000000E+00
  0.00000000E+00  0.00000000E+00  0.00000000E+00
  0.00000000E+00  0.00000000E+00  0.00000000E+00
  0.00000000E+00  0.00000000E+00  0.00000000E+00
  0.00000000E+00  0.00000000E+00  0.00000000E+00
  0.00000000E+00  0.00000000E+00  0.00000000E+00
  0.00000000E+00  0.00000000E+00  0.00000000E+00
  0.00000000E+00  0.00000000E+00  0.00000000E+00
  0.00000000E+00  0.00000000E+00  0.00000000E+00
  0.00000000E+00  0.00000000E+00  0.00000000E+00
  0.00000000E+00  0.00000000E+00  0.00000000E+00
  0.00000000E+00  0.00000000E+00  0.00000000E+00
  0.00000000E+00  0.00000000E+00  0.00000000E+00
  0.00000000E+00  0.00000000E+00  0.00000000E+00
  0.00000000E+00  0.00000000E+00  0.00000000E+00
  0.00000000E+00  0.00000000E+00  0.00000000E+00
  0.00000000E+00  0.00000000E+00  0.00000000E+00
  0.00000000E+00  0.00000000E+00  0.00000000E+00
  0.00000000E+00  0.00000000E+00  0.00000000E+00
  0.00000000E+00  0.00000000E+00  0.00000000E+00
  0.00000000E+00  0.00000000E+00  0.00000000E+00
  0.00000000E+00  0.00000000E+00  0.00000000E+00
  0.00000000E+00  0.00000000E+00  0.00000000E+00
  0.00000000E+00  0.00000000E+00  0.00000000E+00
  0.00000000E+00  0.00000000E+00  0.00000000E+00