 C  H  O Si  W                          
   1.0000000000000000     
    23.4112945954000011    0.0000000000000000    0.0000000000000000
     0.0000000000000000   18.1212369513999967    0.0000000000000000
     0.0000000000000000    0.0000000000000000   26.8833665072999999
   C    H    O    Si   W 
     4    52   154    65     1
Selective dynamics
Direct
  0.5565497161303152  0.5246792108771838  0.7292278614809443   T   T   T
  0.5215132915287360  0.5741226105088661  0.7609308114871167   T   T   T
  0.5716560914375463  0.4464136007796670  0.7457001101454712   T   T   T
  0.5386246049477885  0.6540946100713456  0.7713507225321962   T   T   T
  0.7619476521444268  0.1580666282230690  0.6512682954136864   T   T   T
  0.9264276758775409  0.3338528337127542  0.3563349293400009   F   F   F
  0.7933396966928186  0.2624627681135010  0.3734565163880745   F   F   F
  0.9745391127316694  0.9987924714271159  0.3253027906056829   F   F   F
  0.6257326647787878  0.0186567208635822  0.3752311999972449   F   F   F
  0.8205383986272707  0.0501905344676175  0.3689926296547128   F   F   F
  0.7499930738495308  0.1963626267206990  0.4580381926778543   F   F   F
  0.9155657603068799  0.3046488835003346  0.5094363028563125   T   T   T
  0.5834928632816769  0.3594474171037163  0.3059271726651787   F   F   F
  0.8917086803453175  0.3903004729981039  0.6158204493479925   T   T   T
  0.5910795230433710  0.4168272798806845  0.6135964216823341   T   T   T
  0.5932214754684917  0.9256783490629674  0.5779175514729723   T   T   T
  0.0338176110962086  0.3942872080365538  0.6514071637788751   T   T   T
  0.9352705076763712  0.4746980966241665  0.4541014552468710   F   F   F
  0.7461383787735159  0.5854958633044873  0.4224881911837883   F   F   F
  0.7987874093909388  0.4384621424638585  0.6352437071644881   T   T   T
  0.5911020174091490  0.6238666975949343  0.3780347436188976   F   F   F
  0.7184337867802384  0.7011166566873683  0.3834605945055571   F   F   F
  0.8411529142292764  0.5976104669426832  0.4195961671555111   F   F   F
  0.0047645486475076  0.6589820201033589  0.3577783004107076   F   F   F
  0.8283586993267491  0.7675405442855592  0.4679422553080954   F   F   F
  0.8781529818017559  0.6545362924257785  0.7205647619299332   T   T   T
  0.5199903139612303  0.0407486324352746  0.4217030704774842   F   F   F
  0.2230945721612159  0.0353387060675061  0.3932050219465495   F   F   F
  0.2163736907482345  0.2930353288766483  0.3192303272980936   F   F   F
  0.1575010503616241  0.3849901008808416  0.2789829167401123   F   F   F
  0.3415468765692253  0.2107695764228765  0.3307727584112428   F   F   F
  0.2227158616647102  0.1009427968968666  0.3227384335196248   F   F   F
  0.5109889113507277  0.8816997244758618  0.5466784910165722   T   T   T
  0.3793644621246866  0.2992041720209946  0.6473352905255213   T   T   T
  0.2442451941074759  0.1483555795925855  0.5981505494608157   T   T   T
  0.3153809713091036  0.5423203354474069  0.4424346656312608   F   F   F
  0.4089561837294582  0.4939187295607681  0.4056905975982730   F   F   F
  0.3984995032241372  0.8482974785238113  0.3887867966224334   F   F   F
  0.2442023571188656  0.7106139496515027  0.2943268807443218   F   F   F
  0.3117413815567005  0.4736595844105480  0.3692576443915385   F   F   F
  0.4054742948844066  0.6394635243379412  0.3388198885480591   F   F   F
  0.1393576205880507  0.5431575174532881  0.3519294596467617   F   F   F
  0.5932693451318087  0.7531709992981845  0.3523979868156601   F   F   F
  0.4690068301459220  0.9166113401117428  0.4438283837725479   F   F   F
  0.1216234717158260  0.3793522426720348  0.6117256890031880   T   T   T
  0.0729374576320102  0.7203182216198940  0.6457633109567449   T   T   T
  0.2438471626146908  0.4397558714988417  0.6823585081363543   T   T   T
  0.2466407908755850  0.8722703956862624  0.6695234939923610   T   T   T
  0.5911337335270443  0.5527895863168777  0.7088954126844473   T   T   T
  0.5009705458562974  0.5468143424147149  0.7927575124032846   T   T   T
  0.6077750335853788  0.4476976451108163  0.7721280507144023   T   T   T
  0.5351760445612607  0.4201200475631302  0.7644325657751487   T   T   T
  0.5841206921199771  0.4113910587025594  0.7140687230587026   T   T   T
  0.5673465065362499  0.6563041802307855  0.8039000358087645   T   T   T
  0.5611526191516868  0.6786592059142033  0.7395281072567584   T   T   T
  0.5011169369954372  0.6886283597879087  0.7795527655182209   T   T   T
  0.3689417337945073  0.7035389682943389  0.4390000177989322   F   F   F
  0.3468156499810249  0.5592177388212036  0.4203881275781143   F   F   F
  0.8605038701931605  0.6216629761709959  0.6966654548285496   T   T   T
  0.3489602012169409  0.0131837733899916  0.5309917567022542   T   T   T
  0.0332798094979525  0.9872611130406308  0.5286779010117112   T   T   T
  0.6363554822990451  0.1340524164338248  0.4893766723794641   F   F   F
  0.0686461464807948  0.1074492923483774  0.3951107345583225   F   F   F
  0.4518995424319527  0.1847461957030774  0.4205972814427668   F   F   F
  0.8058841492861291  0.2688340505656726  0.4831666074103040   F   F   F
  0.9736401666307606  0.2370512076596192  0.5986246351464750   T   T   T
  0.2747652928840907  0.3543567418839473  0.4485122250900346   F   F   F
  0.5563541661963498  0.8302751620519331  0.4417510122690658   F   F   F
  0.3912090464530439  0.0269563071270876  0.6202676446915295   T   T   T
  0.1775172398589788  0.4051523202028378  0.4052731245300478   F   F   F
  0.8657318461311428  0.7394625200566092  0.6374023325311744   T   T   T
  0.8656960102276017  0.0223608029513613  0.4670384592975196   F   F   F
  0.3010471365896024  0.8161207057481050  0.4579252567998537   F   F   F
  0.4216109456219570  0.3164360878886967  0.3795963030273342   F   F   F
  0.8107088812385096  0.5205386364698760  0.5199636978884872   T   T   T
  0.9831536893579745  0.1269932245234099  0.5211652692998361   T   T   T
  0.5124711452757265  0.5181396087185025  0.6296338230229676   T   T   T
  0.0345364061182565  0.9751316325257804  0.4294052572495062   F   F   F
  0.9630365419446250  0.3583791788177777  0.3512576249606170   F   F   F
  0.0696266904488567  0.3912896364040606  0.3763717815531962   F   F   F
  0.2082956575310035  0.7838281650694796  0.3953601014000157   F   F   F
  0.0389012629134911  0.4742857864535068  0.4991087535393461   F   F   F
  0.2386332178196909  0.3414657994491822  0.5879322535187740   T   T   T
  0.3969065174611363  0.2509605006586152  0.6443765708805018   T   T   T
  0.4560189516429036  0.6187085719516682  0.5799740732433255   T   T   T
  0.9093623927203305  0.8037666782574909  0.5574745175427517   T   T   T
  0.8691272713299156  0.1632272132326307  0.4422783307318099   F   F   F
  0.5725767945756743  0.7225157237400168  0.3761317316733468   F   F   F
  0.1424265590957958  0.2143093696871006  0.3759722435750490   F   F   F
  0.3502418491379964  0.8206860208831068  0.6066951042145021   T   T   T
  0.9109960497951874  0.9002314422992441  0.4831796236075121   F   F   F
  0.0613380104910135  0.5920555767069899  0.4422534820284341   F   F   F
  0.7083390277084121  0.6103504227204866  0.4199576800001736   F   F   F
  0.0754872572765848  0.8719906757681031  0.4829941554854784   F   F   F
  0.7004647711973604  0.8827395858851332  0.4326352913293690   F   F   F
  0.7301843715591900  0.1039811081556594  0.5429970734811393   T   T   T
  0.9189761507366769  0.3573681731559967  0.6319342758520758   T   T   T
  0.7348588099942764  0.9063736984151703  0.6127325901920635   T   T   T
  0.6251219543867705  0.5825778729354099  0.4863787091564404   F   F   F
  0.5565732987385132  0.6848869112572515  0.4672494240254110   F   F   F
  0.4257822072191824  0.3018791284440870  0.5550800516558689   T   T   T
  0.9782900938336425  0.7834275044788441  0.4767956400891720   F   F   F
  0.6534728632877322  0.6486911528572316  0.6337907844874203   T   T   T
  0.3967185088450769  0.8020458705924998  0.5153531468378911   T   T   T
  0.6026900685395375  0.5728493226453395  0.3856709925442061   F   F   F
  0.7189670409545752  0.6859751258985965  0.5571785492511087   T   T   T
  0.1462721038847893  0.4210606292596010  0.6192407665264880   T   T   T
  0.0657153565151880  0.6030222950658169  0.5422386018688830   T   T   T
  0.8183459398591627  0.9394606363316054  0.5362468987163468   T   T   T
  0.8282155306614527  0.4105690135976232  0.4519033357708793   F   F   F
  0.5276224864914312  0.3526269190109995  0.5318316463180790   T   T   T
  0.7362813088507549  0.5541217106239690  0.5951891838572225   T   T   T
  0.5574339360995921  0.2276149760508730  0.3949085375269945   F   F   F
  0.8059640829904495  0.3115964413438661  0.3832928600033014   F   F   F
  0.2374462167629616  0.0084346213459412  0.5079195554207132   F   F   F
  0.6918827991577361  0.8304758806687714  0.5413618775377085   T   T   T
  0.9234260693857516  0.0043164418274688  0.5531323367468788   T   T   T
  0.5257372223541736  0.3729649904546406  0.3985559351687087   F   F   F
  0.4676772240621991  0.0455653555480474  0.5466758931740897   T   T   T
  0.8379195922659345  0.1497988669597635  0.5397674617982899   T   T   T
  0.5379032530424510  0.1716013601855622  0.4862370923690094   F   F   F
  0.3501934425152129  0.2417926033060667  0.4396363938456389   F   F   F
  0.0117603228167908  0.0175977707736195  0.3352437574830063   F   F   F
  0.4517593581451975  0.6459960011668019  0.6739095736267411   T   T   T
  0.6549652215522386  0.9805813751821333  0.3792282539811964   F   F   F
  0.0762933429470323  0.7412101282781052  0.4358810225764742   F   F   F
  0.4535291149286479  0.4593255322772398  0.5534856382038629   T   T   T
  0.7192194366265099  0.7556047222177824  0.3795829994963285   F   F   F
  0.4507146560111194  0.7603018423002849  0.6004653694289546   T   T   T
  0.7525510591055777  0.7645084462755065  0.4762954835743187   F   F   F
  0.7797736959709444  0.1755267890730589  0.6209297789643934   T   T   T
  0.9932746155468877  0.3631973442958980  0.4484029789284989   F   F   F
  0.5352483440379833  0.5614166952504679  0.5320397326662482   T   T   T
  0.8167775852155614  0.5542456053436879  0.4234422052650615   F   F   F
  0.2366634584240077  0.2003687762867958  0.6050763250984758   T   T   T
  0.2035333057163413  0.8858851869526987  0.4705336293601903   F   F   F
  0.2402853153511329  0.6142383370829220  0.5226151649399949   T   T   T
  0.0610082676574855  0.6805918103018080  0.6239934339648898   T   T   T
  0.0460740722049948  0.6575305630493702  0.3541786312221902   F   F   F
  0.8000655228594176  0.0331464847140990  0.6055001827214943   T   T   T
  0.5379909097114037  0.0828813626538434  0.4045027517534763   F   F   F
  0.6056557469041018  0.3682583908000182  0.6050061545306729   T   T   T
  0.8615461075340960  0.0592647203656895  0.3692063291070653   F   F   F
  0.0949113079819810  0.2042067062767075  0.4670823258906296   F   F   F
  0.1713424256284995  0.2586576265285919  0.5308900002525956   T   T   T
  0.6409886548841044  0.7596225911080339  0.4548155821771758   F   F   F
  0.4367877834064799  0.4649523517738814  0.3864132536704119   F   F   F
  0.5738227013729946  0.1129008076806799  0.5709264702124079   T   T   T
  0.1514377462021059  0.6485918943738085  0.3889583608347777   F   F   F
  0.2677397900769023  0.6575214022950391  0.3923062966030031   F   F   F
  0.4402584600309112  0.3773820531868708  0.4703244327181508   F   F   F
  0.2380096658898907  0.2136950002304303  0.4299011866524154   F   F   F
  0.0726673835410781  0.2040403989336316  0.5621748214573069   T   T   T
  0.8441978378563696  0.5999395556097267  0.5994923749530775   T   T   T
  0.6211794284267498  0.3351237474733182  0.4109054511829981   F   F   F
  0.6026669933739228  0.9467105367042734  0.4672234595428861   F   F   F
  0.0313853912181870  0.2504736999951049  0.3889918752683101   F   F   F
  0.6072922968558517  0.2501926970033286  0.5480862757868713   T   T   T
  0.1327997263300347  0.9935385154496430  0.4794870772378772   F   F   F
  0.0797935387041079  0.3351083782380379  0.5123207889869776   T   T   T
  0.3725034249986973  0.1594593474485382  0.5692709553218848   T   T   T
  0.0659496933400446  0.7514050953855339  0.5356667931637817   T   T   T
  0.6664883802866157  0.4705687484731200  0.4300115561107631   F   F   F
  0.7986687299699307  0.7842715505010307  0.5643417808887393   T   T   T
  0.7038385586134339  0.0123923042067915  0.4701845621740759   F   F   F
  0.5968588549974719  0.6888499150404352  0.5537003240225619   T   T   T
  0.7228402998664549  0.3488685249886743  0.4516681052539582   F   F   F
  0.9770545348450248  0.3697939811018173  0.5470487019397451   T   T   T
  0.1577785365461933  0.6844709433509581  0.5701613580664855   T   T   T
  0.6333338448107071  0.3819669501739185  0.5078007023299378   F   F   F
  0.8197507224312646  0.4521443426803696  0.6055087647586338   T   T   T
  0.9585781980894978  0.0824269152768693  0.4169530046787955   F   F   F
  0.2820122786044953  0.2508221649522159  0.5186291787172471   T   T   T
  0.2492575497532457  0.4982167600544329  0.4610556955705079   F   F   F
  0.2723803880151262  0.9047159943460654  0.5680615389794774   T   T   T
  0.2036681493187373  0.7407570403557955  0.4868887178860462   F   F   F
  0.1471234534495878  0.5312537475793775  0.4925449251270066   F   F   F
  0.2249320196261753  0.4786120057054416  0.5568400671018182   T   T   T
  0.9114169782859136  0.5079284690934998  0.4737188145108959   F   F   F
  0.8697881761182842  0.7597439814306668  0.4641535209108483   F   F   F
  0.7381202078118392  0.1480184894441194  0.4452296472671975   F   F   F
  0.2221834364607460  0.9849650607116089  0.4079468165165281   F   F   F
  0.2520177192226792  0.4579750867473385  0.6492352461601980   T   T   T
  0.6301842494889973  0.9377664608345058  0.5935699936883170   T   T   T
  0.4102232653459481  0.8442462629143677  0.4234373851432949   F   F   F
  0.9177713527308597  0.2512221645748909  0.5082451459005242   F   F   F
  0.1325470584190001  0.4987199847418253  0.3322726622007863   F   F   F
  0.1551476808853849  0.3587071261215939  0.3105604161752922   F   F   F
  0.3730051452693530  0.1860909141715439  0.3479534200993726   F   F   F
  0.0345956427449754  0.3480226275128483  0.6332016508330980   T   T   T
  0.5726892607782261  0.3120520622941427  0.3200996781806822   F   F   F
  0.2447741152819289  0.8273406834333775  0.6499903224708093   T   T   T
  0.2073742988973706  0.7035889206128445  0.3103690611938177   F   F   F
  0.2753744117793318  0.4473751699592938  0.3673758273212613   F   F   F
  0.3653508124869589  0.6527705030914746  0.3422207943191111   F   F   F
  0.2263808502218509  0.1113646949552844  0.3581188824802055   F   F   F
  0.2412033350308818  0.2512620985375591  0.3293429668079639   F   F   F
  0.5012729261715734  0.9474854927868890  0.4548416832162587   F   F   F
  0.5499843083282158  0.8829075728603974  0.5343088106352958   T   T   T
  0.5443583805683662  0.7005885934453998  0.6357350087402602   T   T   T
  0.4784650171391748  0.1776345243889459  0.5962884463253091   T   T   T
  0.2616080688926992  0.7496851988793899  0.5692977522092832   T   T   T
  0.4425413983831116  0.9025244015130713  0.5816348958601487   T   T   T
  0.7648144689053777  0.6716687270074396  0.6497181920703322   T   T   T
  0.8446040638016526  0.8868695009457944  0.6225631510984494   T   T   T
  0.6391334366014808  0.7941013968136525  0.6212394814737814   T   T   T
  0.0075445435177000  0.0883425025500320  0.6031348745651051   T   T   T
  0.2842050247297771  0.0570383144025614  0.5937427960516922   T   T   T
  0.5028416692584642  0.0275082050109442  0.6290982293583598   T   T   T
  0.4297488326209767  0.4830578553970833  0.7161690746255426   T   T   T
  0.0832252792583148  0.6616041716390058  0.4064130837160320   F   F   F
  0.4089340454327089  0.8210801402314684  0.5746675435254596   T   T   T
  0.8417638189676637  0.4966369860369753  0.4678389696388976   F   F   F
  0.0170894936830805  0.0456659097568490  0.3936113541928137   F   F   F
  0.0147002066459194  0.3393741445575031  0.3910814136036507   F   F   F
  0.0089394711712607  0.1697512295543899  0.5723279697385786   T   T   T
  0.6086348924207485  0.7120429045246830  0.6114807586831829   T   T   T
  0.2140614190368116  0.5314224187699349  0.5096512269377604   T   T   T
  0.9150621278077509  0.8107448082659801  0.4962545438487922   F   F   F
  0.5205785424995497  0.1656394969314334  0.4259865881079392   F   F   F
  0.4184519293230028  0.2248316960417513  0.5891820768587307   T   T   T
  0.0834525281692322  0.1943559478997372  0.4069808717903314   F   F   F
  0.7018979345349692  0.1000301253312159  0.4873230277072054   F   F   F
  0.6650593546526977  0.9532213343124241  0.4374764361266443   F   F   F
  0.6500987440092842  0.5592109279009350  0.4301508871204760   F   F   F
  0.1984606475676856  0.9676661022331814  0.4639906909803457   F   F   F
  0.2140882496673908  0.4225900981750094  0.6035437079576224   T   T   T
  0.6730422251947349  0.8678002210647169  0.5946334461585073   T   T   T
  0.2164305720010611  0.6968100102177435  0.5385915819891749   T   T   T
  0.3687891183983183  0.7903116041479024  0.4592092972079129   F   F   F
  0.7968723888563571  0.9430199370078145  0.5952941314856638   T   T   T
  0.8794541195831127  0.9672159596850931  0.5119393698477868   T   T   T
  0.5762442509241829  0.6293975876436145  0.5120565454184248   T   T   T
  0.5897337470809908  0.1703113236220831  0.5253087043381186   T   T   T
  0.8581223412116756  0.2072971031878126  0.4951759473310489   F   F   F
  0.8348237042808826  0.6589485544810567  0.6458751918587096   T   T   T
  0.1337385207956885  0.4155027744683508  0.3568722791356791   F   F   F
  0.7906552883383853  0.3351231164788686  0.4418726542293072   F   F   F
  0.3991760968159852  0.2326787147761138  0.3960031981861079   F   F   F
  0.8555078356375334  0.8050741609966808  0.5963731220998083   T   T   T
  0.2829395637258001  0.9897872837890888  0.5496078494874742   T   T   T
  0.0230747323006639  0.3856313854262154  0.5022455100715746   F   F   F
  0.5745593848382811  0.7506739518051617  0.4355643604055430   F   F   F
  0.2302409542512009  0.8077843674007141  0.4519695445397645   F   F   F
  0.5937703820634059  0.3388816265403482  0.5481942235441024   T   T   T
  0.9752788135370499  0.3278453903740624  0.6024359150911118   T   T   T
  0.8889063590695159  0.0805928697263880  0.4242001869335610   F   F   F
  0.1045788388690772  0.2502290820898263  0.5178908236943852   T   T   T
  0.0481456608991806  0.7882209642648945  0.4826301941714348   F   F   F
  0.2318949275373607  0.2612761154907114  0.5610332372858917   T   T   T
  0.5614078070968063  0.3129691405622808  0.3812261074005363   F   F   F
  0.4762924352364243  0.6824890807280298  0.6214728378348022   T   T   T
  0.2810242215311446  0.8259956448535216  0.5978615713240990   T   T   T
  0.2085008253050660  0.6985837153311536  0.3717945352858223   F   F   F
  0.7398680433303195  0.7654483617729185  0.5357922325836965   T   T   T
  0.9861872854628700  0.0451344643574528  0.5505521464966731   T   T   T
  0.7031045578374417  0.7920020239896672  0.4342603982179796   F   F   F
  0.7880597153602172  0.1141762788757132  0.5766446876473246   T   T   T
  0.4563138980148480  0.3836354658542263  0.4092878915485585   F   F   F
  0.4492142295440660  0.9912246993346270  0.5949925962246074   T   T   T
  0.5081709095126065  0.0962658118892084  0.5862854411589076   T   T   T
  0.2442471516899545  0.4255901947084979  0.4209471039025985   F   F   F
  0.6585253437214931  0.3851859816758179  0.4503479098948588   F   F   F
  0.4605464608826342  0.3732215428951838  0.5288814070327259   T   T   T
  0.3372993678552234  0.6451264125930436  0.3990830096962270   F   F   F
  0.8027956702830831  0.5318819130700907  0.5795590999400646   T   T   T
  0.0692097893945274  0.9540430265313375  0.4805055068825652   F   F   F
  0.2119075788647606  0.1996381921392896  0.3735965933534686   F   F   F
  0.0782328566383796  0.5491688658889444  0.4946876202126234   F   F   F
  0.5575701889662170  0.9075239694569888  0.4747302534090920   F   F   F
  0.7177304017570686  0.6395248873744765  0.6096996899664505   T   T   T
  0.2866421242385897  0.2652856093763347  0.4591107728955208   F   F   F
  0.0875986006408441  0.6801741684064158  0.5677180028930154   T   T   T
  0.3532913236591193  0.0739533634324004  0.5788107870891634   T   T   T
  0.4874245821297187  0.5356705875390748  0.5731114357599516   T   T   T
  0.4769423123431529  0.5480619123010813  0.6940166855376650   T   T   T

  0.00000000E+00  0.00000000E+00  0.00000000E+00
  0.00000000E+00  0.00000000E+00  0.00000000E+00
  0.00000000E+00  0.00000000E+00  0.00000000E+00
  0.00000000E+00  0.00000000E+00  0.00000000E+00
  0.00000000E+00  0.00000000E+00  0.00000000E+00
  0.00000000E+00  0.00000000E+00  0.00000000E+00
  0.00000000E+00  0.00000000E+00  0.00000000E+00
  0.00000000E+00  0.00000000E+00  0.00000000E+00
  0.00000000E+00  0.00000000E+00  0.00000000E+00
  0.00000000E+00  0.00000000E+00  0.00000000E+00
  0.00000000E+00  0.00000000E+00  0.00000000E+00
  0.00000000E+00  0.00000000E+00  0.00000000E+00
  0.00000000E+00  0.00000000E+00  0.00000000E+00
  0.00000000E+00  0.00000000E+00  0.00000000E+00
  0.00000000E+00  0.00000000E+00  0.00000000E+00
  0.00000000E+00  0.00000000E+00  0.00000000E+00
  0.00000000E+00  0.00000000E+00  0.00000000E+00
  0.00000000E+00  0.00000000E+00  0.00000000E+00
  0.00000000E+00  0.00000000E+00  0.00000000E+00
  0.00000000E+00  0.00000000E+00  0.00000000E+00
  0.00000000E+00  0.00000000E+00  0.00000000E+00
  0.00000000E+00  0.00000000E+00  0.00000000E+00
  0.00000000E+00  0.00000000E+00  0.00000000E+00
  0.00000000E+00  0.00000000E+00  0.00000000E+00
  0.00000000E+00  0.00000000E+00  0.00000000E+00
  0.00000000E+00  0.00000000E+00  0.00000000E+00
  0.00000000E+00  0.00000000E+00  0.00000000E+00
  0.00000000E+00  0.00000000E+00  0.00000000E+00
  0.00000000E+00  0.00000000E+00  0.00000000E+00
  0.00000000E+00  0.00000000E+00  0.00000000E+00
  0.00000000E+00  0.00000000E+00  0.00000000E+00
  0.00000000E+00  0.00000000E+00  0.00000000E+00
  0.00000000E+00  0.00000000E+00  0.00000000E+00
  0.00000000E+00  0.00000000E+00  0.00000000E+00
  0.00000000E+00  0.00000000E+00  0.00000000E+00
  0.00000000E+00  0.00000000E+00  0.00000000E+00
  0.00000000E+00  0.00000000E+00  0.00000000E+00
  0.00000000E+00  0.00000000E+00  0.00000000E+00
  0.00000000E+00  0.00000000E+00  0.00000000E+00
  0.00000000E+00  0.00000000E+00  0.00000000E+00
  0.00000000E+00  0.00000000E+00  0.00000000E+00
  0.00000000E+00  0.00000000E+00  0.00000000E+00
  0.00000000E+00  0.00000000E+00  0.00000000E+00
  0.00000000E+00  0.00000000E+00  0.00000000E+00
  0.00000000E+00  0.00000000E+00  0.00000000E+00
  0.00000000E+00  0.00000000E+00  0.00000000E+00
  0.00000000E+00  0.00000000E+00  0.00000000E+00
  0.00000000E+00  0.00000000E+00  0.00000000E+00
  0.00000000E+00  0.00000000E+00  0.00000000E+00
  0.00000000E+00  0.00000000E+00  0.00000000E+00
  0.00000000E+00  0.00000000E+00  0.00000000E+00
  0.00000000E+00  0.00000000E+00  0.00000000E+00
  0.00000000E+00  0.00000000E+00  0.00000000E+00
  0.00000000E+00  0.00000000E+00  0.00000000E+00
  0.00000000E+00  0.00000000E+00  0.00000000E+00
  0.00000000E+00  0.00000000E+00  0.00000000E+00
  0.00000000E+00  0.00000000E+00  0.00000000E+00
  0.00000000E+00  0.00000000E+00  0.00000000E+00
  0.00000000E+00  0.00000000E+00  0.00000000E+00
  0.00000000E+00  0.00000000E+00  0.00000000E+00
  0.00000000E+00  0.00000000E+00  0.00000000E+00
  0.00000000E+00  0.00000000E+00  0.00000000E+00
  0.00000000E+00  0.00000000E+00  0.00000000E+00
  0.00000000E+00  0.00000000E+00  0.00000000E+00
  0.00000000E+00  0.00000000E+00  0.00000000E+00
  0.00000000E+00  0.00000000E+00  0.00000000E+00
  0.00000000E+00  0.00000000E+00  0.00000000E+00
  0.00000000E+00  0.00000000E+00  0.00000000E+00
  0.00000000E+00  0.00000000E+00  0.00000000E+00
  0.00000000E+00  0.00000000E+00  0.00000000E+00
  0.00000000E+00  0.00000000E+00  0.00000000E+00
  0.00000000E+00  0.00000000E+00  0.00000000E+00
  0.00000000E+00  0.00000000E+00  0.00000000E+00
  0.00000000E+00  0.00000000E+00  0.00000000E+00
  0.00000000E+00  0.00000000E+00  0.00000000E+00
  0.00000000E+00  0.00000000E+00  0.00000000E+00
  0.00000000E+00  0.00000000E+00  0.00000000E+00
  0.00000000E+00  0.00000000E+00  0.00000000E+00
  0.00000000E+00  0.00000000E+00  0.00000000E+00
  0.00000000E+00  0.00000000E+00  0.00000000E+00
  0.00000000E+00  0.00000000E+00  0.00000000E+00
  0.00000000E+00  0.00000000E+00  0.00000000E+00
  0.00000000E+00  0.00000000E+00  0.00000000E+00
  0.00000000E+00  0.00000000E+00  0.00000000E+00
  0.00000000E+00  0.00000000E+00  0.00000000E+00
  0.00000000E+00  0.00000000E+00  0.00000000E+00
  0.00000000E+00  0.00000000E+00  0.00000000E+00
  0.00000000E+00  0.00000000E+00  0.00000000E+00
  0.00000000E+00  0.00000000E+00  0.00000000E+00
  0.00000000E+00  0.00000000E+00  0.00000000E+00
  0.00000000E+00  0.00000000E+00  0.00000000E+00
  0.00000000E+00  0.00000000E+00  0.00000000E+00
  0.00000000E+00  0.00000000E+00  0.00000000E+00
  0.00000000E+00  0.00000000E+00  0.00000000E+00
  0.00000000E+00  0.00000000E+00  0.00000000E+00
  0.00000000E+00  0.00000000E+00  0.00000000E+00
  0.00000000E+00  0.00000000E+00  0.00000000E+00
  0.00000000E+00  0.00000000E+00  0.00000000E+00
  0.00000000E+00  0.00000000E+00  0.00000000E+00
  0.00000000E+00  0.00000000E+00  0.00000000E+00
  0.00000000E+00  0.00000000E+00  0.00000000E+00
  0.00000000E+00  0.00000000E+00  0.00000000E+00
  0.00000000E+00  0.00000000E+00  0.00000000E+00
  0.00000000E+00  0.00000000E+00  0.00000000E+00
  0.00000000E+00  0.00000000E+00  0.00000000E+00
  0.00000000E+00  0.00000000E+00  0.00000000E+00
  0.00000000E+00  0.00000000E+00  0.00000000E+00
  0.00000000E+00  0.00000000E+00  0.00000000E+00
  0.00000000E+00  0.00000000E+00  0.00000000E+00
  0.00000000E+00  0.00000000E+00  0.00000000E+00
  0.00000000E+00  0.00000000E+00  0.00000000E+00
  0.00000000E+00  0.00000000E+00  0.00000000E+00
  0.00000000E+00  0.00000000E+00  0.00000000E+00
  0.00000000E+00  0.00000000E+00  0.00000000E+00
  0.00000000E+00  0.00000000E+00  0.00000000E+00
  0.00000000E+00  0.00000000E+00  0.00000000E+00
  0.00000000E+00  0.00000000E+00  0.00000000E+00
  0.00000000E+00  0.00000000E+00  0.00000000E+00
  0.00000000E+00  0.00000000E+00  0.00000000E+00
  0.00000000E+00  0.00000000E+00  0.00000000E+00
  0.00000000E+00  0.00000000E+00  0.00000000E+00
  0.00000000E+00  0.00000000E+00  0.00000000E+00
  0.00000000E+00  0.00000000E+00  0.00000000E+00
  0.00000000E+00  0.00000000E+00  0.00000000E+00
  0.00000000E+00  0.00000000E+00  0.00000000E+00
  0.00000000E+00  0.00000000E+00  0.00000000E+00
  0.00000000E+00  0.00000000E+00  0.00000000E+00
  0.00000000E+00  0.00000000E+00  0.00000000E+00
  0.00000000E+00  0.00000000E+00  0.00000000E+00
  0.00000000E+00  0.00000000E+00  0.00000000E+00
  0.00000000E+00  0.00000000E+00  0.00000000E+00
  0.00000000E+00  0.00000000E+00  0.00000000E+00
  0.00000000E+00  0.00000000E+00  0.00000000E+00
  0.00000000E+00  0.00000000E+00  0.00000000E+00
  0.00000000E+00  0.00000000E+00  0.00000000E+00
  0.00000000E+00  0.00000000E+00  0.00000000E+00
  0.00000000E+00  0.00000000E+00  0.00000000E+00
  0.00000000E+00  0.00000000E+00  0.00000000E+00
  0.00000000E+00  0.00000000E+00  0.00000000E+00
  0.00000000E+00  0.00000000E+00  0.00000000E+00
  0.00000000E+00  0.00000000E+00  0.00000000E+00
  0.00000000E+00  0.00000000E+00  0.00000000E+00
  0.00000000E+00  0.00000000E+00  0.00000000E+00
  0.00000000E+00  0.00000000E+00  0.00000000E+00
  0.00000000E+00  0.00000000E+00  0.00000000E+00
  0.00000000E+00  0.00000000E+00  0.00000000E+00
  0.00000000E+00  0.00000000E+00  0.00000000E+00
  0.00000000E+00  0.00000000E+00  0.00000000E+00
  0.00000000E+00  0.00000000E+00  0.00000000E+00
  0.00000000E+00  0.00000000E+00  0.00000000E+00
  0.00000000E+00  0.00000000E+00  0.00000000E+00
  0.00000000E+00  0.00000000E+00  0.00000000E+00
  0.00000000E+00  0.00000000E+00  0.00000000E+00
  0.00000000E+00  0.00000000E+00  0.00000000E+00
  0.00000000E+00  0.00000000E+00  0.00000000E+00
  0.00000000E+00  0.00000000E+00  0.00000000E+00
  0.00000000E+00  0.00000000E+00  0.00000000E+00
  0.00000000E+00  0.00000000E+00  0.00000000E+00
  0.00000000E+00  0.00000000E+00  0.00000000E+00
  0.00000000E+00  0.00000000E+00  0.00000000E+00
  0.00000000E+00  0.00000000E+00  0.00000000E+00
  0.00000000E+00  0.00000000E+00  0.00000000E+00
  0.00000000E+00  0.00000000E+00  0.00000000E+00
  0.00000000E+00  0.00000000E+00  0.00000000E+00
  0.00000000E+00  0.00000000E+00  0.00000000E+00
  0.00000000E+00  0.00000000E+00  0.00000000E+00
  0.00000000E+00  0.00000000E+00  0.00000000E+00
  0.00000000E+00  0.00000000E+00  0.00000000E+00
  0.00000000E+00  0.00000000E+00  0.00000000E+00
  0.00000000E+00  0.00000000E+00  0.00000000E+00
  0.00000000E+00  0.00000000E+00  0.00000000E+00
  0.00000000E+00  0.00000000E+00  0.00000000E+00
  0.00000000E+00  0.00000000E+00  0.00000000E+00
  0.00000000E+00  0.00000000E+00  0.00000000E+00
  0.00000000E+00  0.00000000E+00  0.00000000E+00
  0.00000000E+00  0.00000000E+00  0.00000000E+00
  0.00000000E+00  0.00000000E+00  0.00000000E+00
  0.00000000E+00  0.00000000E+00  0.00000000E+00
  0.00000000E+00  0.00000000E+00  0.00000000E+00
  0.00000000E+00  0.00000000E+00  0.00000000E+00
  0.00000000E+00  0.00000000E+00  0.00000000E+00
  0.00000000E+00  0.00000000E+00  0.00000000E+00
  0.00000000E+00  0.00000000E+00  0.00000000E+00
  0.00000000E+00  0.00000000E+00  0.00000000E+00
  0.00000000E+00  0.00000000E+00  0.00000000E+00
  0.00000000E+00  0.00000000E+00  0.00000000E+00
  0.00000000E+00  0.00000000E+00  0.00000000E+00
  0.00000000E+00  0.00000000E+00  0.00000000E+00
  0.00000000E+00  0.00000000E+00  0.00000000E+00
  0.00000000E+00  0.00000000E+00  0.00000000E+00
  0.00000000E+00  0.00000000E+00  0.00000000E+00
  0.00000000E+00  0.00000000E+00  0.00000000E+00
  0.00000000E+00  0.00000000E+00  0.00000000E+00