 C  H  O Si  W                          
   1.0000000000000000     
    23.4112945954000011    0.0000000000000000    0.0000000000000000
     0.0000000000000000   18.1212369513999967    0.0000000000000000
     0.0000000000000000    0.0000000000000000   26.8833665072999999
   C    H    O    Si   W 
     4    52   155    65     1
Selective dynamics
Direct
  0.5212534003125313  0.5402749333950041  0.7539252605815960   T   T   T
  0.5509983293162222  0.3885836244994252  0.7475084858862573   T   T   T
  0.5762689658052622  0.5835568341461936  0.7510613833938606   T   T   T
  0.5431331404919462  0.3252455704962287  0.7821965757679834   T   T   T
  0.7630049856418992  0.1017828465897068  0.6518998443845945   F   F   F
  0.9264276758775409  0.2786689628389283  0.3563349293400009   F   F   F
  0.7933396966928186  0.2072788972396751  0.3734565163880745   F   F   F
  0.9745391127316694  0.9436086005532900  0.3253027906056829   F   F   F
  0.6257326647787878  0.9634728499897562  0.3752311999972449   F   F   F
  0.8205383986272707  0.9950066635937915  0.3689926296547128   F   F   F
  0.7499930738495308  0.1411787558468731  0.4580381926778543   F   F   F
  0.9154425005564306  0.2494572891900333  0.5092652963802706   F   F   F
  0.5834928632816769  0.3042635462298904  0.3059271726651787   F   F   F
  0.8917675854387852  0.3351708354442309  0.6156001507098381   F   F   F
  0.5845791915520948  0.3560025177020307  0.6162871041891123   F   F   F
  0.5931999018117509  0.8713334120133496  0.5782275302941073   F   F   F
  0.0335895809870337  0.3373881557054688  0.6526420735633849   F   F   F
  0.9352705076763712  0.4195142257503477  0.4541014552468710   F   F   F
  0.7461383787735159  0.5303119924306614  0.4224881911837883   F   F   F
  0.7987954331849778  0.3827817085681531  0.6348469748553569   F   F   F
  0.5911020174091490  0.5686828267211084  0.3780347436188976   F   F   F
  0.7184337867802384  0.6459327858135424  0.3834605945055571   F   F   F
  0.8411529142292764  0.5424265960688572  0.4195961671555111   F   F   F
  0.0047645486475076  0.6037981492295330  0.3577783004107076   F   F   F
  0.8283586993267491  0.7123566734117333  0.4679422553080954   F   F   F
  0.8789533414203419  0.5986049895731114  0.7202573783995732   F   F   F
  0.5199903139612303  0.9855647615614487  0.4217030704774842   F   F   F
  0.2230945721612159  0.9801548351936802  0.3932050219465495   F   F   F
  0.2163736907482345  0.2378514580028224  0.3192303272980936   F   F   F
  0.1575010503616241  0.3298062300070157  0.2789829167401123   F   F   F
  0.3415468765692253  0.1555857055490506  0.3307727584112428   F   F   F
  0.2227158616647102  0.0457589260230407  0.3227384335196248   F   F   F
  0.5111389931329597  0.8253516574695894  0.5466772222787952   F   F   F
  0.3712985119431096  0.2369040266367293  0.6465840235473479   F   F   F
  0.2437028155462926  0.0931826642965703  0.5985855135564790   F   F   F
  0.3153809713091036  0.4871364645735810  0.4424346656312608   F   F   F
  0.4089561837294582  0.4387348586869493  0.4056905975982730   F   F   F
  0.3984995032241372  0.7931136076499996  0.3887867966224334   F   F   F
  0.2442023571188656  0.6554300787776768  0.2943268807443218   F   F   F
  0.3117413815567005  0.4184757135367292  0.3692576443915385   F   F   F
  0.4054742948844066  0.5842796534641153  0.3388198885480591   F   F   F
  0.1393576205880507  0.4879736465794622  0.3519294596467617   F   F   F
  0.5932693451318087  0.6979871284243586  0.3523979868156601   F   F   F
  0.4690068301459220  0.8614274692379311  0.4438283837725479   F   F   F
  0.1235993441814003  0.3240894679940993  0.6139767950665131   F   F   F
  0.0752322961682026  0.6625729279396992  0.6465407705129280   F   F   F
  0.2461964630671929  0.3899372322790953  0.6821089913175626   F   F   F
  0.2461447803702654  0.8143589415382877  0.6701966552643412   F   F   F
  0.5002533918092169  0.5401431768574341  0.7904568138013133   T   T   T
  0.5834517036690130  0.4304501439790016  0.7567584315540330   T   T   T
  0.6030207009226842  0.5764541333060720  0.7844935150141978   T   T   T
  0.6020075669724392  0.5708524620041757  0.7179221323694165   T   T   T
  0.5652434711234946  0.6428738910765475  0.7486842544640595   T   T   T
  0.5475681433103787  0.3432085628669981  0.8210953184757344   T   T   T
  0.5024160832832507  0.2968169464268300  0.7758306167136411   T   T   T
  0.5784927120866783  0.2860243520756853  0.7749528561962222   T   T   T
  0.3689417337945073  0.6483550974205130  0.4390000177989322   F   F   F
  0.3468156499810249  0.5040338679473777  0.4203881275781143   F   F   F
  0.8604216940402836  0.5661732305934564  0.6965942334775477   F   F   F
  0.3483775268948790  0.9589497556563558  0.5305182869652469   F   F   F
  0.0334302621892562  0.9326573176063704  0.5284356485507260   F   F   F
  0.6363554822990451  0.0788685455599989  0.4893766723794641   F   F   F
  0.0686461464807948  0.0522654214745515  0.3951107345583225   F   F   F
  0.4518995424319527  0.1295623248292515  0.4205972814427668   F   F   F
  0.8058841492861291  0.2136501796918466  0.4831666074103040   F   F   F
  0.9731228072265452  0.1815742121030723  0.5987916323811504   F   F   F
  0.2747652928840907  0.2991728710101214  0.4485122250900346   F   F   F
  0.5563541661963498  0.7750912911781072  0.4417510122690658   F   F   F
  0.3915190668021822  0.9741304664248389  0.6193598686589112   F   F   F
  0.1775172398589788  0.3499684493290118  0.4052731245300478   F   F   F
  0.8662371171617522  0.6842787650185898  0.6373192245332575   F   F   F
  0.8656960102276017  0.9671769320775354  0.4670384592975196   F   F   F
  0.3010471365896024  0.7609368348742791  0.4579252567998537   F   F   F
  0.4216109456219570  0.2612522170148708  0.3795963030273342   F   F   F
  0.8107177285753906  0.4657119629602775  0.5199227430305555   F   F   F
  0.9834999576544803  0.0727974258951178  0.5212309889588198   F   F   F
  0.5092895924278835  0.4705307187333432  0.6291752424162951   F   F   F
  0.0345364061182565  0.9199477616519545  0.4294052572495062   F   F   F
  0.9630365419446250  0.3031953079439518  0.3512576249606170   F   F   F
  0.0696266904488567  0.3361057655302346  0.3763717815531962   F   F   F
  0.2082956575310035  0.7286442941956537  0.3953601014000157   F   F   F
  0.0389012629134911  0.4191019155796880  0.4991087535393461   F   F   F
  0.2400991668928256  0.2859351239060004  0.5879338449000358   F   F   F
  0.3977482280819373  0.1958065601230743  0.6446894358628441   F   F   F
  0.4530925074651222  0.5658610345938513  0.5761100809985109   F   F   F
  0.9096875363622132  0.7491457746310815  0.5574518609938508   F   F   F
  0.8691272713299156  0.1080433423588048  0.4422783307318099   F   F   F
  0.5725767945756743  0.6673318528661909  0.3761317316733468   F   F   F
  0.1424265590957958  0.1591254988132746  0.3759722435750490   F   F   F
  0.3501847909977087  0.7661613267455820  0.6065909911753309   F   F   F
  0.9109960497951874  0.8450475714254324  0.4831796236075121   F   F   F
  0.0613380104910135  0.5368717058331640  0.4422534820284341   F   F   F
  0.7083390277084121  0.5551665518466606  0.4199576800001736   F   F   F
  0.0754872572765848  0.8168068048942914  0.4829941554854784   F   F   F
  0.7004647711973604  0.8275557150113215  0.4326352913293690   F   F   F
  0.7301875639068314  0.0491943497690670  0.5429377667463768   F   F   F
  0.9189736783807945  0.3023499196993100  0.6318900314347005   F   F   F
  0.7346319568421649  0.8521344887170486  0.6128320395048661   F   F   F
  0.6251219543867705  0.5273940020615839  0.4863787091564404   F   F   F
  0.5565732987385132  0.6297030403834256  0.4672494240254110   F   F   F
  0.4252917440774766  0.2477854076785704  0.5552001376773248   F   F   F
  0.9782900938336425  0.7282436336050182  0.4767956400891720   F   F   F
  0.6536742599579028  0.5945598563428831  0.6334778775119290   F   F   F
  0.3965028979162852  0.7469503070485146  0.5151857582119774   F   F   F
  0.6026900685395375  0.5176654517715136  0.3856709925442061   F   F   F
  0.7199612106640032  0.6305169406358289  0.5569652960892881   F   F   F
  0.1489550799478963  0.3647122915202772  0.6223577263836546   F   F   F
  0.0661019191707624  0.5484719112927579  0.5418992413526951   F   F   F
  0.8188080274469627  0.8845652443160006  0.5365698426484187   F   F   F
  0.8282155306614527  0.3553851427237973  0.4519033357708793   F   F   F
  0.5273102178035955  0.2980188954477541  0.5322199684692919   F   F   F
  0.7364151758229127  0.4989637894613992  0.5958996376144299   F   F   F
  0.5574339360995921  0.1724311051770471  0.3949085375269945   F   F   F
  0.8059640829904495  0.2564125704700402  0.3832928600033014   F   F   F
  0.2374462167629616  0.9532507504721153  0.5079195554207132   F   F   F
  0.6923518540720011  0.7753691676822001  0.5416704840355848   F   F   F
  0.9238185132717760  0.9497832138712639  0.5529699493117661   F   F   F
  0.5257372223541736  0.3177811195808147  0.3985559351687087   F   F   F
  0.4679491375999731  0.9913840452468108  0.5458713055779967   F   F   F
  0.8376661131394414  0.0948000121223060  0.5397445866545709   F   F   F
  0.5379032530424510  0.1164174893117362  0.4862370923690094   F   F   F
  0.3501934425152129  0.1866087324322407  0.4396363938456389   F   F   F
  0.0117603228167908  0.9624138998997935  0.3352437574830063   F   F   F
  0.4508483622469370  0.5891110480416160  0.6712847965294912   F   F   F
  0.6549652215522386  0.9253975043083074  0.3792282539811964   F   F   F
  0.0762933429470323  0.6860262574042792  0.4358810225764742   F   F   F
  0.4533322078105897  0.4052131798873333  0.5530585064353417   F   F   F
  0.7192194366265099  0.7004208513439565  0.3795829994963285   F   F   F
  0.4510736497612342  0.7059034750849662  0.5999933957473118   F   F   F
  0.7525510591055777  0.7093245754016806  0.4762954835743187   F   F   F
  0.7785967060963159  0.1204965533747142  0.6209704168420558   F   F   F
  0.9932746155468877  0.3080134734220721  0.4484029789284989   F   F   F
  0.5348653134990826  0.5074172144080578  0.5318788102043897   F   F   F
  0.8167775852155614  0.4990617344698620  0.4234422052650615   F   F   F
  0.2358219652222360  0.1452382295960462  0.6053270120627943   F   F   F
  0.2035333057163413  0.8307013160788870  0.4705336293601903   F   F   F
  0.2398843481089372  0.5588648285392424  0.5228303660962084   F   F   F
  0.0611554233414040  0.6254618264538223  0.6236721356007422   F   F   F
  0.0460740722049948  0.6023466921755443  0.3541786312221902   F   F   F
  0.8003447330169138  0.9784110168620543  0.6056237241147713   F   F   F
  0.5379909097114037  0.0276974917800175  0.4045027517534763   F   F   F
  0.6058836255562667  0.3130187840209118  0.6051234661692035   F   F   F
  0.8615461075340960  0.0040808494918636  0.3692063291070653   F   F   F
  0.0949113079819810  0.1490228354028815  0.4670823258906296   F   F   F
  0.1714494906770980  0.2043792386456289  0.5309951339296646   F   F   F
  0.6409886548841044  0.7044387202342079  0.4548155821771758   F   F   F
  0.4367877834064799  0.4097684809000626  0.3864132536704119   F   F   F
  0.5738798214137617  0.0590864922732095  0.5711409471778524   F   F   F
  0.1514377462021059  0.5934080234999826  0.3889583608347777   F   F   F
  0.2677397900769023  0.6023375314212132  0.3923062966030031   F   F   F
  0.4402584600309112  0.3221981823130449  0.4703244327181508   F   F   F
  0.2380096658898907  0.1585111293566044  0.4299011866524154   F   F   F
  0.0727501072818129  0.1502457798231518  0.5625371654611513   F   F   F
  0.8443438149325431  0.5446728071871263  0.5994603110452559   F   F   F
  0.6211794284267498  0.2799398765994923  0.4109054511829981   F   F   F
  0.6026669933739228  0.8915266658304475  0.4672234595428861   F   F   F
  0.0313853912181870  0.1952898291212790  0.3889918752683101   F   F   F
  0.6079205741795803  0.1957391217104956  0.5471279922867893   F   F   F
  0.1327997263300347  0.9383546445758171  0.4794870772378772   F   F   F
  0.0802589283309274  0.2803744156546841  0.5114168685526082   F   F   F
  0.3722359571731459  0.1056971123140400  0.5679879294319505   F   F   F
  0.0667069465727366  0.6966671830179365  0.5355226096981482   F   F   F
  0.6664883802866157  0.4153848775993012  0.4300115561107631   F   F   F
  0.7992502853979317  0.7296048227401783  0.5640097856304536   F   F   F
  0.7038385586134339  0.9572084333329656  0.4701845621740759   F   F   F
  0.5984275645657320  0.6345194657665161  0.5526967433792578   F   F   F
  0.7228402998664549  0.2936846541148483  0.4516681052539582   F   F   F
  0.9776209679249845  0.3141248404039203  0.5472122270403261   F   F   F
  0.1583025884385236  0.6297572534166633  0.5706533871967423   F   F   F
  0.6333338448107071  0.3267830793000925  0.5078007023299378   F   F   F
  0.8196459345771530  0.3965045194295982  0.6050626192747259   F   F   F
  0.9585781980894978  0.0272430444030434  0.4169530046787955   F   F   F
  0.2820040545874818  0.1950529997158412  0.5185990894677630   F   F   F
  0.2492575497532457  0.4430328891806070  0.4610556955705079   F   F   F
  0.2719021276910070  0.8505324583698695  0.5692488259055679   F   F   F
  0.2036681493187373  0.6855731694819696  0.4868887178860462   F   F   F
  0.1471234534495878  0.4760698767055516  0.4925449251270066   F   F   F
  0.2243145754571501  0.4224614845953809  0.5566078034127173   F   F   F
  0.9114169782859136  0.4527445982196738  0.4737188145108959   F   F   F
  0.8697881761182842  0.7045601105568409  0.4641535209108483   F   F   F
  0.7381202078118392  0.0928346185702935  0.4452296472671975   F   F   F
  0.2221834364607460  0.9297811898377830  0.4079468165165281   F   F   F
  0.2556297735940447  0.4030548817305686  0.6481644907535653   F   F   F
  0.6304349936845526  0.8833093358588684  0.5933931613994545   F   F   F
  0.4102232653459481  0.7890623920405559  0.4234373851432949   F   F   F
  0.9177713527308597  0.1960382937010650  0.5082451459005242   F   F   F
  0.1325470584190001  0.4435361138679994  0.3322726622007863   F   F   F
  0.1551476808853849  0.3035232552477680  0.3105604161752922   F   F   F
  0.3730051452693530  0.1309070432977180  0.3479534200993726   F   F   F
  0.0346123698092526  0.2919781738292997  0.6334994551646673   F   F   F
  0.5726892607782261  0.2568681914203168  0.3200996781806822   F   F   F
  0.2446527037247961  0.7700410120116246  0.6499921471090744   F   F   F
  0.2073742988973706  0.6484050497390186  0.3103690611938177   F   F   F
  0.2753744117793318  0.3921912990854750  0.3673758273212613   F   F   F
  0.3653508124869589  0.5975866322176486  0.3422207943191111   F   F   F
  0.2263808502218509  0.0561808240814585  0.3581188824802055   F   F   F
  0.2412033350308818  0.1960782276637332  0.3293429668079639   F   F   F
  0.5012729261715734  0.8923016219130631  0.4548416832162587   F   F   F
  0.5500863561114784  0.8280255404127388  0.5343234185374115   F   F   F
  0.5434854812996761  0.6446220536107958  0.6335895659393884   F   F   F
  0.4781381972779357  0.1228832968160560  0.5963049453542197   F   F   F
  0.2621383058325861  0.6949151967409364  0.5685367028237422   F   F   F
  0.4419104881534466  0.8482761624164112  0.5810266051898765   F   F   F
  0.7650786690148550  0.6170882288544064  0.6495675546098099   F   F   F
  0.8446103336107313  0.8317723022774857  0.6228475048544269   F   F   F
  0.6382131684038654  0.7394944948219475  0.6210396995321119   F   F   F
  0.0081171977334975  0.0334374169579945  0.6029765675722629   F   F   F
  0.2840061356799097  0.0032481086340326  0.5933951598376694   F   F   F
  0.5029014746213747  0.9724069877877497  0.6283031393405523   F   F   F
  0.5261526088891628  0.3907238397425061  0.7054769963347098   T   T   T
  0.4198245405352452  0.4621583794590975  0.7268136709607802   T   T   T
  0.0832252792583148  0.6064203007651798  0.4064130837160320   F   F   F
  0.4089458119552063  0.7660160422077595  0.5745740295430934   F   F   F
  0.8417638189676637  0.4414531151631564  0.4678389696388976   F   F   F
  0.0170894936830805  0.9904820388830231  0.3936113541928137   F   F   F
  0.0147002066459194  0.2841902736836772  0.3910814136036507   F   F   F
  0.0092236420840237  0.1150553460620003  0.5725210378588557   F   F   F
  0.6079120759685921  0.6571054253661046  0.6108150537590973   F   F   F
  0.2140057466258938  0.4759917063560266  0.5097559168070518   F   F   F
  0.9150621278077509  0.7555609373921541  0.4962545438487922   F   F   F
  0.5205785424995497  0.1104556260576075  0.4259865881079392   F   F   F
  0.4183666589581989  0.1703157541923588  0.5888934975791642   F   F   F
  0.0834525281692322  0.1391720770259113  0.4069808717903314   F   F   F
  0.7018979345349692  0.0448462544573900  0.4873230277072054   F   F   F
  0.6650593546526977  0.8980374634385981  0.4374764361266443   F   F   F
  0.6500987440092842  0.5040270570271090  0.4301508871204760   F   F   F
  0.1984606475676856  0.9124822313593555  0.4639906909803457   F   F   F
  0.2158710249299602  0.3670567666380080  0.6040268984080583   F   F   F
  0.6728336213968547  0.8128197107808646  0.5947416783730048   F   F   F
  0.2166680986081815  0.6417650673415807  0.5386154439352708   F   F   F
  0.3687891183983183  0.7351277332740764  0.4592092972079129   F   F   F
  0.7969125474156158  0.8880782619816543  0.5955507548812378   F   F   F
  0.8797246542438018  0.9122227688318389  0.5120421245657667   F   F   F
  0.5762951906387883  0.5744108673345778  0.5120874484459250   F   F   F
  0.5898902047913879  0.1157247287213465  0.5251848511359611   F   F   F
  0.8581223412116756  0.1521132323139867  0.4951759473310489   F   F   F
  0.8350407938346223  0.6038827898032793  0.6458014710122129   F   F   F
  0.1337385207956885  0.3603189035945249  0.3568722791356791   F   F   F
  0.7906552883383853  0.2799392456050427  0.4418726542293072   F   F   F
  0.3991760968159852  0.1774948439022879  0.3960031981861079   F   F   F
  0.8558368718610865  0.7501448256183352  0.5964536008533088   F   F   F
  0.2826938683599849  0.9350729844613070  0.5498819232159917   F   F   F
  0.0230747323006639  0.3304475145523895  0.5022455100715746   F   F   F
  0.5745593848382811  0.6954900809313358  0.4355643604055430   F   F   F
  0.2302409542512009  0.7526004965268882  0.4519695445397645   F   F   F
  0.5935439857385845  0.2842343282510384  0.5482314977799732   F   F   F
  0.9752825124466042  0.2723456778919484  0.6026464606457580   F   F   F
  0.8889063590695159  0.0254089988525621  0.4242001869335610   F   F   F
  0.1047407893931762  0.1955132484757840  0.5177840100705851   F   F   F
  0.0481456608991806  0.7330370933910686  0.4826301941714348   F   F   F
  0.2320231901782748  0.2059716113881365  0.5610800284390791   F   F   F
  0.5614078070968063  0.2577852696884548  0.3812261074005363   F   F   F
  0.4746450691856481  0.6257506985908847  0.6199469148123242   F   F   F
  0.2810508738977333  0.7707970665110935  0.5979652476270658   F   F   F
  0.2085008253050660  0.6433998444573277  0.3717945352858223   F   F   F
  0.7402393005504564  0.7103413631447353  0.5358708260929319   F   F   F
  0.9865244960091673  0.9906265544066528  0.5503559678311305   F   F   F
  0.7031045578374417  0.7368181531158413  0.4342603982179796   F   F   F
  0.7878874735652843  0.0592122020140096  0.5767547116162461   F   F   F
  0.4563138980148480  0.3284515949804003  0.4092878915485585   F   F   F
  0.4490318173372785  0.9368242841947136  0.5940440463262178   F   F   F
  0.5081473354343089  0.0416757989756746  0.5859129677864914   F   F   F
  0.2442471516899545  0.3704063238346720  0.4209471039025985   F   F   F
  0.6585253437214931  0.3300021108019919  0.4503479098948588   F   F   F
  0.4602664598812751  0.3192547301072324  0.5290948680143970   F   F   F
  0.3372993678552234  0.5899425417192177  0.3990830096962270   F   F   F
  0.8027429054583308  0.4767435961509960  0.5796156819325873   F   F   F
  0.0692097893945274  0.8988591556575116  0.4805055068825652   F   F   F
  0.2119075788647606  0.1444543212654636  0.3735965933534686   F   F   F
  0.0782328566383796  0.4939849950151185  0.4946876202126234   F   F   F
  0.5575701889662170  0.8523400985831771  0.4747302534090920   F   F   F
  0.7178644642219467  0.5847295131475079  0.6096748981705105   F   F   F
  0.2866421242385897  0.2101017385025088  0.4591107728955208   F   F   F
  0.0881576408410254  0.6253657818745424  0.5676229148321283   F   F   F
  0.3530246569938598  0.0202201590229905  0.5780013533177595   F   F   F
  0.4855853080748247  0.4834877893228153  0.5724034490610350   F   F   F
  0.4805905973373470  0.4947456344387292  0.6980372308196288   T   T   T

  0.00000000E+00  0.00000000E+00  0.00000000E+00
  0.00000000E+00  0.00000000E+00  0.00000000E+00
  0.00000000E+00  0.00000000E+00  0.00000000E+00
  0.00000000E+00  0.00000000E+00  0.00000000E+00
  0.00000000E+00  0.00000000E+00  0.00000000E+00
  0.00000000E+00  0.00000000E+00  0.00000000E+00
  0.00000000E+00  0.00000000E+00  0.00000000E+00
  0.00000000E+00  0.00000000E+00  0.00000000E+00
  0.00000000E+00  0.00000000E+00  0.00000000E+00
  0.00000000E+00  0.00000000E+00  0.00000000E+00
  0.00000000E+00  0.00000000E+00  0.00000000E+00
  0.00000000E+00  0.00000000E+00  0.00000000E+00
  0.00000000E+00  0.00000000E+00  0.00000000E+00
  0.00000000E+00  0.00000000E+00  0.00000000E+00
  0.00000000E+00  0.00000000E+00  0.00000000E+00
  0.00000000E+00  0.00000000E+00  0.00000000E+00
  0.00000000E+00  0.00000000E+00  0.00000000E+00
  0.00000000E+00  0.00000000E+00  0.00000000E+00
  0.00000000E+00  0.00000000E+00  0.00000000E+00
  0.00000000E+00  0.00000000E+00  0.00000000E+00
  0.00000000E+00  0.00000000E+00  0.00000000E+00
  0.00000000E+00  0.00000000E+00  0.00000000E+00
  0.00000000E+00  0.00000000E+00  0.00000000E+00
  0.00000000E+00  0.00000000E+00  0.00000000E+00
  0.00000000E+00  0.00000000E+00  0.00000000E+00
  0.00000000E+00  0.00000000E+00  0.00000000E+00
  0.00000000E+00  0.00000000E+00  0.00000000E+00
  0.00000000E+00  0.00000000E+00  0.00000000E+00
  0.00000000E+00  0.00000000E+00  0.00000000E+00
  0.00000000E+00  0.00000000E+00  0.00000000E+00
  0.00000000E+00  0.00000000E+00  0.00000000E+00
  0.00000000E+00  0.00000000E+00  0.00000000E+00
  0.00000000E+00  0.00000000E+00  0.00000000E+00
  0.00000000E+00  0.00000000E+00  0.00000000E+00
  0.00000000E+00  0.00000000E+00  0.00000000E+00
  0.00000000E+00  0.00000000E+00  0.00000000E+00
  0.00000000E+00  0.00000000E+00  0.00000000E+00
  0.00000000E+00  0.00000000E+00  0.00000000E+00
  0.00000000E+00  0.00000000E+00  0.00000000E+00
  0.00000000E+00  0.00000000E+00  0.00000000E+00
  0.00000000E+00  0.00000000E+00  0.00000000E+00
  0.00000000E+00  0.00000000E+00  0.00000000E+00
  0.00000000E+00  0.00000000E+00  0.00000000E+00
  0.00000000E+00  0.00000000E+00  0.00000000E+00
  0.00000000E+00  0.00000000E+00  0.00000000E+00
  0.00000000E+00  0.00000000E+00  0.00000000E+00
  0.00000000E+00  0.00000000E+00  0.00000000E+00
  0.00000000E+00  0.00000000E+00  0.00000000E+00
  0.00000000E+00  0.00000000E+00  0.00000000E+00
  0.00000000E+00  0.00000000E+00  0.00000000E+00
  0.00000000E+00  0.00000000E+00  0.00000000E+00
  0.00000000E+00  0.00000000E+00  0.00000000E+00
  0.00000000E+00  0.00000000E+00  0.00000000E+00
  0.00000000E+00  0.00000000E+00  0.00000000E+00
  0.00000000E+00  0.00000000E+00  0.00000000E+00
  0.00000000E+00  0.00000000E+00  0.00000000E+00
  0.00000000E+00  0.00000000E+00  0.00000000E+00
  0.00000000E+00  0.00000000E+00  0.00000000E+00
  0.00000000E+00  0.00000000E+00  0.00000000E+00
  0.00000000E+00  0.00000000E+00  0.00000000E+00
  0.00000000E+00  0.00000000E+00  0.00000000E+00
  0.00000000E+00  0.00000000E+00  0.00000000E+00
  0.00000000E+00  0.00000000E+00  0.00000000E+00
  0.00000000E+00  0.00000000E+00  0.00000000E+00
  0.00000000E+00  0.00000000E+00  0.00000000E+00
  0.00000000E+00  0.00000000E+00  0.00000000E+00
  0.00000000E+00  0.00000000E+00  0.00000000E+00
  0.00000000E+00  0.00000000E+00  0.00000000E+00
  0.00000000E+00  0.00000000E+00  0.00000000E+00
  0.00000000E+00  0.00000000E+00  0.00000000E+00
  0.00000000E+00  0.00000000E+00  0.00000000E+00
  0.00000000E+00  0.00000000E+00  0.00000000E+00
  0.00000000E+00  0.00000000E+00  0.00000000E+00
  0.00000000E+00  0.00000000E+00  0.00000000E+00
  0.00000000E+00  0.00000000E+00  0.00000000E+00
  0.00000000E+00  0.00000000E+00  0.00000000E+00
  0.00000000E+00  0.00000000E+00  0.00000000E+00
  0.00000000E+00  0.00000000E+00  0.00000000E+00
  0.00000000E+00  0.00000000E+00  0.00000000E+00
  0.00000000E+00  0.00000000E+00  0.00000000E+00
  0.00000000E+00  0.00000000E+00  0.00000000E+00
  0.00000000E+00  0.00000000E+00  0.00000000E+00
  0.00000000E+00  0.00000000E+00  0.00000000E+00
  0.00000000E+00  0.00000000E+00  0.00000000E+00
  0.00000000E+00  0.00000000E+00  0.00000000E+00
  0.00000000E+00  0.00000000E+00  0.00000000E+00
  0.00000000E+00  0.00000000E+00  0.00000000E+00
  0.00000000E+00  0.00000000E+00  0.00000000E+00
  0.00000000E+00  0.00000000E+00  0.00000000E+00
  0.00000000E+00  0.00000000E+00  0.00000000E+00
  0.00000000E+00  0.00000000E+00  0.00000000E+00
  0.00000000E+00  0.00000000E+00  0.00000000E+00
  0.00000000E+00  0.00000000E+00  0.00000000E+00
  0.00000000E+00  0.00000000E+00  0.00000000E+00
  0.00000000E+00  0.00000000E+00  0.00000000E+00
  0.00000000E+00  0.00000000E+00  0.00000000E+00
  0.00000000E+00  0.00000000E+00  0.00000000E+00
  0.00000000E+00  0.00000000E+00  0.00000000E+00
  0.00000000E+00  0.00000000E+00  0.00000000E+00
  0.00000000E+00  0.00000000E+00  0.00000000E+00
  0.00000000E+00  0.00000000E+00  0.00000000E+00
  0.00000000E+00  0.00000000E+00  0.00000000E+00
  0.00000000E+00  0.00000000E+00  0.00000000E+00
  0.00000000E+00  0.00000000E+00  0.00000000E+00
  0.00000000E+00  0.00000000E+00  0.00000000E+00
  0.00000000E+00  0.00000000E+00  0.00000000E+00
  0.00000000E+00  0.00000000E+00  0.00000000E+00
  0.00000000E+00  0.00000000E+00  0.00000000E+00
  0.00000000E+00  0.00000000E+00  0.00000000E+00
  0.00000000E+00  0.00000000E+00  0.00000000E+00
  0.00000000E+00  0.00000000E+00  0.00000000E+00
  0.00000000E+00  0.00000000E+00  0.00000000E+00
  0.00000000E+00  0.00000000E+00  0.00000000E+00
  0.00000000E+00  0.00000000E+00  0.00000000E+00
  0.00000000E+00  0.00000000E+00  0.00000000E+00
  0.00000000E+00  0.00000000E+00  0.00000000E+00
  0.00000000E+00  0.00000000E+00  0.00000000E+00
  0.00000000E+00  0.00000000E+00  0.00000000E+00
  0.00000000E+00  0.00000000E+00  0.00000000E+00
  0.00000000E+00  0.00000000E+00  0.00000000E+00
  0.00000000E+00  0.00000000E+00  0.00000000E+00
  0.00000000E+00  0.00000000E+00  0.00000000E+00
  0.00000000E+00  0.00000000E+00  0.00000000E+00
  0.00000000E+00  0.00000000E+00  0.00000000E+00
  0.00000000E+00  0.00000000E+00  0.00000000E+00
  0.00000000E+00  0.00000000E+00  0.00000000E+00
  0.00000000E+00  0.00000000E+00  0.00000000E+00
  0.00000000E+00  0.00000000E+00  0.00000000E+00
  0.00000000E+00  0.00000000E+00  0.00000000E+00
  0.00000000E+00  0.00000000E+00  0.00000000E+00
  0.00000000E+00  0.00000000E+00  0.00000000E+00
  0.00000000E+00  0.00000000E+00  0.00000000E+00
  0.00000000E+00  0.00000000E+00  0.00000000E+00
  0.00000000E+00  0.00000000E+00  0.00000000E+00
  0.00000000E+00  0.00000000E+00  0.00000000E+00
  0.00000000E+00  0.00000000E+00  0.00000000E+00
  0.00000000E+00  0.00000000E+00  0.00000000E+00
  0.00000000E+00  0.00000000E+00  0.00000000E+00
  0.00000000E+00  0.00000000E+00  0.00000000E+00
  0.00000000E+00  0.00000000E+00  0.00000000E+00
  0.00000000E+00  0.00000000E+00  0.00000000E+00
  0.00000000E+00  0.00000000E+00  0.00000000E+00
  0.00000000E+00  0.00000000E+00  0.00000000E+00
  0.00000000E+00  0.00000000E+00  0.00000000E+00
  0.00000000E+00  0.00000000E+00  0.00000000E+00
  0.00000000E+00  0.00000000E+00  0.00000000E+00
  0.00000000E+00  0.00000000E+00  0.00000000E+00
  0.00000000E+00  0.00000000E+00  0.00000000E+00
  0.00000000E+00  0.00000000E+00  0.00000000E+00
  0.00000000E+00  0.00000000E+00  0.00000000E+00
  0.00000000E+00  0.00000000E+00  0.00000000E+00
  0.00000000E+00  0.00000000E+00  0.00000000E+00
  0.00000000E+00  0.00000000E+00  0.00000000E+00
  0.00000000E+00  0.00000000E+00  0.00000000E+00
  0.00000000E+00  0.00000000E+00  0.00000000E+00
  0.00000000E+00  0.00000000E+00  0.00000000E+00
  0.00000000E+00  0.00000000E+00  0.00000000E+00
  0.00000000E+00  0.00000000E+00  0.00000000E+00
  0.00000000E+00  0.00000000E+00  0.00000000E+00
  0.00000000E+00  0.00000000E+00  0.00000000E+00
  0.00000000E+00  0.00000000E+00  0.00000000E+00
  0.00000000E+00  0.00000000E+00  0.00000000E+00
  0.00000000E+00  0.00000000E+00  0.00000000E+00
  0.00000000E+00  0.00000000E+00  0.00000000E+00
  0.00000000E+00  0.00000000E+00  0.00000000E+00
  0.00000000E+00  0.00000000E+00  0.00000000E+00
  0.00000000E+00  0.00000000E+00  0.00000000E+00
  0.00000000E+00  0.00000000E+00  0.00000000E+00
  0.00000000E+00  0.00000000E+00  0.00000000E+00
  0.00000000E+00  0.00000000E+00  0.00000000E+00
  0.00000000E+00  0.00000000E+00  0.00000000E+00
  0.00000000E+00  0.00000000E+00  0.00000000E+00
  0.00000000E+00  0.00000000E+00  0.00000000E+00
  0.00000000E+00  0.00000000E+00  0.00000000E+00
  0.00000000E+00  0.00000000E+00  0.00000000E+00
  0.00000000E+00  0.00000000E+00  0.00000000E+00
  0.00000000E+00  0.00000000E+00  0.00000000E+00
  0.00000000E+00  0.00000000E+00  0.00000000E+00
  0.00000000E+00  0.00000000E+00  0.00000000E+00
  0.00000000E+00  0.00000000E+00  0.00000000E+00
  0.00000000E+00  0.00000000E+00  0.00000000E+00
  0.00000000E+00  0.00000000E+00  0.00000000E+00
  0.00000000E+00  0.00000000E+00  0.00000000E+00
  0.00000000E+00  0.00000000E+00  0.00000000E+00
  0.00000000E+00  0.00000000E+00  0.00000000E+00
  0.00000000E+00  0.00000000E+00  0.00000000E+00
  0.00000000E+00  0.00000000E+00  0.00000000E+00
  0.00000000E+00  0.00000000E+00  0.00000000E+00
  0.00000000E+00  0.00000000E+00  0.00000000E+00
  0.00000000E+00  0.00000000E+00  0.00000000E+00
  0.00000000E+00  0.00000000E+00  0.00000000E+00
  0.00000000E+00  0.00000000E+00  0.00000000E+00