C2H48O155Si65W1
1.0
     23.4112946       0.0000000       0.0000000
      0.0000000      18.1212370       0.0000000
      0.0000000       0.0000000      26.8833665
  C     H     O     Si    W   
  2     48   155    65    1   
Direct
      0.5274854       0.5550296       0.7545162
      0.5693003       0.4917753       0.7635561
      0.7605171       0.1030206       0.6511859
      0.9264277       0.2786690       0.3563349
      0.7933397       0.2072789       0.3734565
      0.9745391       0.9436086       0.3253028
      0.6257327       0.9634728       0.3752312
      0.8205384       0.9950067       0.3689926
      0.7499931       0.1411788       0.4580382
      0.9153582       0.2494403       0.5095651
      0.5834929       0.3042635       0.3059272
      0.8915220       0.3349035       0.6164852
      0.5917126       0.3596205       0.6156811
      0.5929348       0.8699717       0.5787322
      0.0340190       0.3379147       0.6519556
      0.9352705       0.4195142       0.4541015
      0.7461384       0.5303120       0.4224882
      0.7973728       0.3808700       0.6339885
      0.5911020       0.5686828       0.3780347
      0.7184338       0.6459328       0.3834606
      0.8411529       0.5424266       0.4195962
      0.0047645       0.6037981       0.3577783
      0.8283587       0.7123567       0.4679423
      0.8774460       0.5987782       0.7211534
      0.5199903       0.9855648       0.4217031
      0.2230946       0.9801548       0.3932050
      0.2163737       0.2378515       0.3192303
      0.1575011       0.3298062       0.2789829
      0.3415469       0.1555857       0.3307728
      0.2227159       0.0457589       0.3227384
      0.5112128       0.8248036       0.5465300
      0.3786487       0.2414326       0.6471293
      0.2439582       0.0928862       0.5984533
      0.3153810       0.4871365       0.4424347
      0.4089562       0.4387349       0.4056906
      0.3984995       0.7931136       0.3887868
      0.2442024       0.6554301       0.2943269
      0.3117414       0.4184757       0.3692576
      0.4054743       0.5842797       0.3388199
      0.1393576       0.4879736       0.3519295
      0.5932693       0.6979871       0.3523980
      0.4690068       0.8614275       0.4438284
      0.1219249       0.3228492       0.6116554
      0.0714799       0.6660732       0.6452723
      0.2436952       0.3852963       0.6823408
      0.2451798       0.8153527       0.6687961
      0.5467020       0.6061753       0.7404321
      0.4973705       0.5669369       0.7847842
      0.5620892       0.4617823       0.7986389
      0.6147325       0.5063713       0.7599531
      0.3689417       0.6483551       0.4390000
      0.3468156       0.5040339       0.4203881
      0.8607105       0.5660075       0.6966950
      0.3489780       0.9576742       0.5301899
      0.0333676       0.9324369       0.5285304
      0.6363555       0.0788685       0.4893767
      0.0686461       0.0522654       0.3951107
      0.4518995       0.1295623       0.4205973
      0.8058841       0.2136502       0.4831666
      0.9731293       0.1815209       0.5987751
      0.2747653       0.2991729       0.4485122
      0.5563542       0.7750913       0.4417510
      0.3926231       0.9714580       0.6191717
      0.1775172       0.3499684       0.4052731
      0.8664195       0.6839923       0.6372863
      0.8656960       0.9671769       0.4670385
      0.3010471       0.7609368       0.4579253
      0.4216109       0.2612522       0.3795963
      0.8112209       0.4652486       0.5201396
      0.9835375       0.0727420       0.5212505
      0.5114487       0.4635467       0.6273785
      0.0345364       0.9199478       0.4294053
      0.9630365       0.3031953       0.3512576
      0.0696267       0.3361058       0.3763718
      0.2082957       0.7286443       0.3953601
      0.0389013       0.4191019       0.4991088
      0.2396252       0.2857045       0.5879965
      0.3978654       0.1942525       0.6443584
      0.4549087       0.5634475       0.5789158
      0.9096517       0.7490673       0.5574712
      0.8691273       0.1080433       0.4422783
      0.5725768       0.6673319       0.3761317
      0.1424266       0.1591255       0.3759722
      0.3504385       0.7653536       0.6066686
      0.9109960       0.8450476       0.4831796
      0.0613380       0.5368717       0.4422535
      0.7083390       0.5551666       0.4199577
      0.0754873       0.8168068       0.4829942
      0.7004648       0.8275557       0.4326353
      0.7300247       0.0488914       0.5430310
      0.9187848       0.3015284       0.6322017
      0.7347013       0.8517883       0.6129784
      0.6251220       0.5273940       0.4863787
      0.5565733       0.6297030       0.4672494
      0.4262244       0.2459449       0.5551388
      0.9782901       0.7282436       0.4767956
      0.6541187       0.5933274       0.6334535
      0.3971513       0.7458945       0.5153251
      0.6026901       0.5176655       0.3856710
      0.7197674       0.6302558       0.5569670
      0.1468106       0.3639597       0.6199483
      0.0663135       0.5485495       0.5419427
      0.8188167       0.8845617       0.5366668
      0.8282155       0.3553851       0.4519033
      0.5275711       0.2988450       0.5325403
      0.7369691       0.4983110       0.5954440
      0.5574339       0.1724311       0.3949085
      0.8059641       0.2564126       0.3832929
      0.2374462       0.9532508       0.5079196
      0.6922164       0.7749847       0.5418231
      0.9237983       0.9497879       0.5529769
      0.5257372       0.3177811       0.3985559
      0.4688015       0.9895903       0.5457326
      0.8374527       0.0948698       0.5398093
      0.5379033       0.1164175       0.4862371
      0.3501934       0.1866087       0.4396364
      0.0117603       0.9624139       0.3352438
      0.4545355       0.5841516       0.6729238
      0.6549652       0.9253975       0.3792283
      0.0762933       0.6860263       0.4358810
      0.4518943       0.4039942       0.5528207
      0.7192194       0.7004209       0.3795830
      0.4501483       0.7032529       0.6012542
      0.7525511       0.7093246       0.4762955
      0.7784928       0.1206105       0.6209593
      0.9932746       0.3080135       0.4484030
      0.5331385       0.5062572       0.5296218
      0.8167776       0.4990617       0.4234422
      0.2358071       0.1447767       0.6053056
      0.2035333       0.8307013       0.4705336
      0.2399924       0.5585852       0.5227990
      0.0611753       0.6254434       0.6236488
      0.0460741       0.6023467       0.3541786
      0.8002441       0.9783084       0.6057943
      0.5379909       0.0276975       0.4045028
      0.6066899       0.3121909       0.6051339
      0.8615461       0.0040808       0.3692063
      0.0949113       0.1490228       0.4670823
      0.1714540       0.2040442       0.5309324
      0.6409887       0.7044387       0.4548156
      0.4367878       0.4097685       0.3864133
      0.5747670       0.0580042       0.5709836
      0.1514377       0.5934080       0.3889584
      0.2677398       0.6023375       0.3923063
      0.4402585       0.3221982       0.4703244
      0.2380097       0.1585111       0.4299012
      0.0727526       0.1501958       0.5625463
      0.8450550       0.5439151       0.5997455
      0.6211794       0.2799399       0.4109055
      0.6026670       0.8915267       0.4672235
      0.0313854       0.1952898       0.3889919
      0.6076224       0.1954407       0.5474693
      0.1327997       0.9383546       0.4794871
      0.0802606       0.2803739       0.5115865
      0.3728417       0.1036541       0.5685037
      0.0666483       0.6970333       0.5357252
      0.6664884       0.4153849       0.4300116
      0.7992144       0.7294272       0.5640924
      0.7038386       0.9572084       0.4701846
      0.5967341       0.6321589       0.5535986
      0.7228403       0.2936847       0.4516681
      0.9775236       0.3141547       0.5472608
      0.1583824       0.6299171       0.5705211
      0.6333338       0.3267831       0.5078007
      0.8202942       0.3961061       0.6057238
      0.9585782       0.0272430       0.4169530
      0.2821040       0.1950644       0.5186763
      0.2492575       0.4430329       0.4610557
      0.2723971       0.8491155       0.5680773
      0.2036681       0.6855732       0.4868887
      0.1471235       0.4760699       0.4925449
      0.2244528       0.4224302       0.5566869
      0.9114170       0.4527446       0.4737188
      0.8697882       0.7045601       0.4641535
      0.7381202       0.0928346       0.4452296
      0.2221834       0.9297812       0.4079468
      0.2521722       0.4026364       0.6490665
      0.6299125       0.8820277       0.5943380
      0.4102233       0.7890624       0.4234374
      0.9177714       0.1960383       0.5082451
      0.1325471       0.4435361       0.3322727
      0.1551477       0.3035233       0.3105604
      0.3730051       0.1309070       0.3479534
      0.0345665       0.2919383       0.6334312
      0.5726893       0.2568682       0.3200997
      0.2447173       0.7702173       0.6494352
      0.2073743       0.6484050       0.3103691
      0.2753744       0.3921913       0.3673758
      0.3653508       0.5975866       0.3422208
      0.2263809       0.0561808       0.3581189
      0.2412033       0.1960782       0.3293430
      0.5012729       0.8923016       0.4548417
      0.5502106       0.8275106       0.5342754
      0.5445772       0.6443449       0.6351403
      0.4787455       0.1208508       0.5961337
      0.2628138       0.6937390       0.5685046
      0.4432699       0.8458916       0.5813464
      0.7654780       0.6164470       0.6493708
      0.8445595       0.8315131       0.6229794
      0.6387118       0.7384203       0.6211029
      0.0081366       0.0333915       0.6029900
      0.2850146       0.0010807       0.5936786
      0.5042786       0.9703579       0.6280048
      0.5535941       0.4416159       0.7222937
      0.4308992       0.4460271       0.7202931
      0.0832253       0.6064203       0.4064131
      0.4091871       0.7646028       0.5747777
      0.8417638       0.4414531       0.4678390
      0.0170895       0.9904820       0.3936114
      0.0147002       0.2841903       0.3910814
      0.0092364       0.1150391       0.5725190
      0.6089302       0.6561278       0.6111507
      0.2139651       0.4757806       0.5097256
      0.9150621       0.7555609       0.4962545
      0.5205785       0.1104556       0.4259866
      0.4189888       0.1684215       0.5889237
      0.0834525       0.1391721       0.4069809
      0.7018979       0.0448463       0.4873230
      0.6650594       0.8980375       0.4374764
      0.6500987       0.5040271       0.4301509
      0.1984606       0.9124822       0.4639907
      0.2143837       0.3665033       0.6036023
      0.6730701       0.8123800       0.5949603
      0.2167521       0.6414217       0.5384574
      0.3687891       0.7351277       0.4592093
      0.7970026       0.8880452       0.5956327
      0.8797497       0.9122581       0.5120119
      0.5757856       0.5737330       0.5115721
      0.5899107       0.1154472       0.5252020
      0.8581223       0.1521132       0.4951759
      0.8354653       0.6034488       0.6458141
      0.1337385       0.3603189       0.3568723
      0.7906553       0.2799392       0.4418727
      0.3991761       0.1774948       0.3960032
      0.8558697       0.7499658       0.5964953
      0.2831255       0.9341132       0.5493802
      0.0230747       0.3304475       0.5022455
      0.5745594       0.6954901       0.4355644
      0.2302410       0.7526005       0.4519695
      0.5938773       0.2840388       0.5483715
      0.9751444       0.2723060       0.6026922
      0.8889064       0.0254090       0.4242002
      0.1047062       0.1954580       0.5177572
      0.0481457       0.7330371       0.4826302
      0.2319787       0.2056652       0.5610918
      0.5614078       0.2577853       0.3812261
      0.4765860       0.6253168       0.6212159
      0.2812714       0.7700834       0.5974918
      0.2085008       0.6433998       0.3717945
      0.7402850       0.7101182       0.5358620
      0.9865293       0.9905889       0.5503729
      0.7031046       0.7368182       0.4342604
      0.7877403       0.0592363       0.5768230
      0.4563139       0.3284516       0.4092879
      0.4503052       0.9348803       0.5939377
      0.5091201       0.0399642       0.5857385
      0.2442472       0.3704063       0.4209471
      0.6585253       0.3300021       0.4503479
      0.4602747       0.3175550       0.5288251
      0.3372994       0.5899425       0.3990830
      0.8034843       0.4760054       0.5798200
      0.0692098       0.8988592       0.4805055
      0.2119076       0.1444543       0.3735966
      0.0782329       0.4939850       0.4946876
      0.5575702       0.8523401       0.4747303
      0.7183887       0.5838793       0.6095300
      0.2866421       0.2101017       0.4591108
      0.0881895       0.6255385       0.5675879
      0.3539084       0.0180381       0.5781340
      0.4856623       0.4807120       0.5708481
      0.4882893       0.4917811       0.6948210
