 C  H  O Si  W                          
   1.0000000000000000     
    23.4112945954000011    0.0000000000000000    0.0000000000000000
     0.0000000000000000   18.1212369513999967    0.0000000000000000
     0.0000000000000000    0.0000000000000000   26.8833665072999999
   C    H    O    Si   W 
     4    52   154    65     1
Selective dynamics
Direct
  0.4411925205744135  0.3975525733248435  0.7050324795198132   T   T   T
  0.3950772667782444  0.3735722448992312  0.7414658289015811   T   T   T
  0.5491300567901694  0.4535486872559759  0.7269673285569979   T   T   T
  0.5069264398042868  0.3843082877753709  0.7243700763163683   T   T   T
  0.7621959207449051  0.1021695252594386  0.6515737204467655   T   T   T
  0.9264276758305172  0.2786689626896504  0.3563349293400009   F   F   F
  0.7933396966457948  0.2072788970903972  0.3734565163880745   F   F   F
  0.9745391126846457  0.9436086004040121  0.3253027906056829   F   F   F
  0.6257326647317640  0.9634728498404783  0.3752311999972449   F   F   F
  0.8205383985802470  0.9950066634445136  0.3689926296547128   F   F   F
  0.7499930738025071  0.1411787556975952  0.4580381926778543   F   F   F
  0.9153853839300142  0.2494267341114511  0.5096762241350475   T   T   T
  0.5834928632346532  0.3042635460806125  0.3059271726651787   F   F   F
  0.8924104593164315  0.3349722853001085  0.6162101228611582   T   T   T
  0.6083707043103228  0.3669166981051747  0.6078093486154013   T   T   T
  0.5935073417576535  0.8702409075630143  0.5780933966252563   T   T   T
  0.0329446779919580  0.3370548756605555  0.6534825191457856   T   T   T
  0.9352705076293475  0.4195142256010627  0.4541014552468710   F   F   F
  0.7461383787264921  0.5303119922813835  0.4224881911837883   F   F   F
  0.8031088546621453  0.3864452143268688  0.6378278604297238   T   T   T
  0.5911020173621253  0.5686828265718304  0.3780347436188976   F   F   F
  0.7184337867332147  0.6459327856642645  0.3834605945055571   F   F   F
  0.8411529141822527  0.5424265959195793  0.4195961671555111   F   F   F
  0.0047645486004839  0.6037981490802551  0.3577783004107076   F   F   F
  0.8283586992797254  0.7123566732624553  0.4679422553080954   F   F   F
  0.8789193925290285  0.5985361327131875  0.7205830999391879   T   T   T
  0.5199903139142066  0.9855647614121708  0.4217030704774842   F   F   F
  0.2230945721141921  0.9801548350444023  0.3932050219465495   F   F   F
  0.2163736907012108  0.2378514578535444  0.3192303272980936   F   F   F
  0.1575010503146004  0.3298062298577378  0.2789829167401123   F   F   F
  0.3415468765222016  0.1555857053997727  0.3307727584112428   F   F   F
  0.2227158616176865  0.0457589258737627  0.3227384335196248   F   F   F
  0.5111665582275124  0.8266735573008310  0.5468810602008890   T   T   T
  0.3615744284880509  0.2234726674055011  0.6473111054430394   T   T   T
  0.2438424195381866  0.0949519839422541  0.5993925402695798   T   T   T
  0.3153809712620799  0.4871364644243030  0.4424346656312608   F   F   F
  0.4089561836824345  0.4387348585376643  0.4056905975982730   F   F   F
  0.3984995031771135  0.7931136075007075  0.3887867966224334   F   F   F
  0.2442023570718419  0.6554300786283989  0.2943268807443218   F   F   F
  0.3117413815096768  0.4184757133874442  0.3692576443915385   F   F   F
  0.4054742948373828  0.5842796533148373  0.3388198885480591   F   F   F
  0.1393576205410270  0.4879736464301843  0.3519294596467617   F   F   F
  0.5932693450847850  0.6979871282750807  0.3523979868156601   F   F   F
  0.4690068300988983  0.8614274690886390  0.4438283837725479   F   F   F
  0.1219064242162102  0.3269911697918553  0.6136550366697853   T   T   T
  0.0736144822677811  0.6645292473786385  0.6460326288717829   T   T   T
  0.2355347851745041  0.3998714184727117  0.6822239934372470   T   T   T
  0.2488036423770959  0.8156232749493380  0.6703317983854983   T   T   T
  0.4363869002141952  0.3722369283251196  0.6682611521017797   T   T   T
  0.3963833914906658  0.3133476359832927  0.7472910608439659   T   T   T
  0.3528975629561413  0.3876089482229950  0.7260399924912778   T   T   T
  0.4000419183097028  0.4017346908297889  0.7774008552705314   T   T   T
  0.5842270929273343  0.4499713252574997  0.7002962231828831   T   T   T
  0.5254018339638554  0.3450406760899920  0.6980241786661526   T   T   T
  0.5023312554301580  0.3626277471439544  0.7621129441447623   T   T   T
  0.5627975395904193  0.4661505272053597  0.7648687342109386   T   T   T
  0.3689417337474836  0.6483550972712351  0.4390000177989322   F   F   F
  0.3468156499340012  0.5040338677980998  0.4203881275781143   F   F   F
  0.8607491592603023  0.5661776963232072  0.6966589591399074   T   T   T
  0.3486402395752660  0.9604031041983613  0.5307345688659455   T   T   T
  0.0331630291840463  0.9322522659431739  0.5285552707860863   T   T   T
  0.6363554822520214  0.0788685454107210  0.4893766723794641   F   F   F
  0.0686461464337711  0.0522654213252736  0.3951107345583225   F   F   F
  0.4518995423849290  0.1295623246799735  0.4205972814427668   F   F   F
  0.8058841492391053  0.2136501795425687  0.4831666074103040   F   F   F
  0.9736264487033242  0.1817737857813944  0.5987504497544478   T   T   T
  0.2747652928370670  0.2991728708608434  0.4485122250900346   F   F   F
  0.5563541661493261  0.7750912910288292  0.4417510122690658   F   F   F
  0.3909516243767253  0.9748891232150869  0.6200679703161969   T   T   T
  0.1775172398119551  0.3499684491797339  0.4052731245300478   F   F   F
  0.8665663199044984  0.6844181485880059  0.6375881542293274   T   T   T
  0.8656960101805780  0.9671769319282575  0.4670384592975196   F   F   F
  0.3010471365425786  0.7609368347250012  0.4579252567998537   F   F   F
  0.4216109455749333  0.2612522168655929  0.3795963030273342   F   F   F
  0.8111848231304688  0.4648184020145767  0.5203034836189935   T   T   T
  0.9833045885094123  0.0723934690871271  0.5211799893684107   T   T   T
  0.5044670463276766  0.4700490796551033  0.6318924130165772   T   T   T
  0.0345364060712328  0.9199477615026765  0.4294052572495062   F   F   F
  0.9630365418976012  0.3031953077946739  0.3512576249606170   F   F   F
  0.0696266904018330  0.3361057653809567  0.3763717815531962   F   F   F
  0.2082956574839798  0.7286442940463758  0.3953601014000157   F   F   F
  0.0389012628664673  0.4191019154304030  0.4991087535393461   F   F   F
  0.2396532299343606  0.2873008712464673  0.5874542439100785   T   T   T
  0.3976206666852244  0.1971385695529798  0.6453683849465580   T   T   T
  0.4544927821457885  0.5672734420530108  0.5764370460161163   T   T   T
  0.9099431389010432  0.7489954134754476  0.5574965760793684   T   T   T
  0.8691272712828919  0.1080433422095268  0.4422783307318099   F   F   F
  0.5725767945286506  0.6673318527169130  0.3761317316733468   F   F   F
  0.1424265590487721  0.1591254986639967  0.3759722435750490   F   F   F
  0.3510311244988068  0.7656994803788153  0.6064674359044809   T   T   T
  0.9109960497481637  0.8450475712761403  0.4831796236075121   F   F   F
  0.0613380104439898  0.5368717056838861  0.4422534820284341   F   F   F
  0.7083390276613883  0.5551665516973827  0.4199576800001736   F   F   F
  0.0754872572295611  0.8168068047449992  0.4829941554854784   F   F   F
  0.7004647711503367  0.8275557148620294  0.4326352913293690   F   F   F
  0.7302215999773356  0.0493143633137837  0.5429612190280957   T   T   T
  0.9198787326644935  0.3025919925029376  0.6326294288000420   T   T   T
  0.7350064411681116  0.8520414877433355  0.6130264030472810   T   T   T
  0.6251219543397468  0.5273940019123060  0.4863787091564404   F   F   F
  0.5565732986914895  0.6297030402341477  0.4672494240254110   F   F   F
  0.4256062970933780  0.2483712036624630  0.5556883993367006   T   T   T
  0.9782900937866188  0.7282436334557403  0.4767956400891720   F   F   F
  0.6540310709208539  0.5935594014205680  0.6332666310675398   T   T   T
  0.3964520532388364  0.7480205244777527  0.5149979354949933   T   T   T
  0.6026900684925138  0.5176654516222357  0.3856709925442061   F   F   F
  0.7205482019660348  0.6300340136588518  0.5569399299367024   T   T   T
  0.1482150102391612  0.3666912986917291  0.6219218136936939   T   T   T
  0.0663459522619182  0.5482281299946145  0.5421616779887003   T   T   T
  0.8185495552658097  0.8839872572105558  0.5363107448256771   T   T   T
  0.8282155306144290  0.3553851425745194  0.4519033357708793   F   F   F
  0.5275231577353232  0.2966860714436564  0.5315330169033120   T   T   T
  0.7370959248308352  0.4985112471129595  0.5958474537605847   T   T   T
  0.5574339360525684  0.1724311050277691  0.3949085375269945   F   F   F
  0.8059640829434258  0.2564125703207623  0.3832928600033014   F   F   F
  0.2374462167159379  0.9532507503228373  0.5079195554207132   F   F   F
  0.6925421873104864  0.7750474221687996  0.5418388611847458   T   T   T
  0.9232984729119419  0.9496695665621527  0.5530106021226753   T   T   T
  0.5257372223071499  0.3177811194315368  0.3985559351687087   F   F   F
  0.4671544704802702  0.9935108195638007  0.5466619189748430   T   T   T
  0.8377542248728261  0.0948026678509611  0.5397664851765818   T   T   T
  0.5379032529954273  0.1164174891624583  0.4862370923690094   F   F   F
  0.3501934424681892  0.1866087322829628  0.4396363938456389   F   F   F
  0.0117603227697671  0.9624138997505156  0.3352437574830063   F   F   F
  0.4503304162514695  0.5960693453025762  0.6715464820824613   T   T   T
  0.6549652215052149  0.9253975041590294  0.3792282539811964   F   F   F
  0.0762933429000086  0.6860262572550013  0.4358810225764742   F   F   F
  0.4542822374564294  0.4053008942894021  0.5531388241563867   T   T   T
  0.7192194365794862  0.7004208511946786  0.3795829994963285   F   F   F
  0.4530145234506946  0.7082752734968278  0.5983411922603964   T   T   T
  0.7525510590585540  0.7093245752524027  0.4762954835743187   F   F   F
  0.7793709130811931  0.1201895338154488  0.6210994519908234   T   T   T
  0.9932746154998640  0.3080134732727942  0.4484029789284989   F   F   F
  0.5370140876244338  0.5072432117700149  0.5346423504122625   T   T   T
  0.8167775851685377  0.4990617343205841  0.4234422052650615   F   F   F
  0.2376170057434871  0.1473859813596877  0.6061291796539392   T   T   T
  0.2035333056693176  0.8307013159295948  0.4705336293601903   F   F   F
  0.2398863122545105  0.5593106597462016  0.5227185422108783   T   T   T
  0.0613293106889040  0.6253592601967940  0.6239528104857855   T   T   T
  0.0460740721579711  0.6023466920262663  0.3541786312221902   F   F   F
  0.8005482370424112  0.9781177792355293  0.6053208394534231   T   T   T
  0.5379909096643800  0.0276974916307395  0.4045027517534763   F   F   F
  0.6061259920714956  0.3136381201379434  0.6045180358493646   T   T   T
  0.8615461074870723  0.0040808493425857  0.3692063291070653   F   F   F
  0.0949113079349573  0.1490228352536036  0.4670823258906296   F   F   F
  0.1712380163767363  0.2038523573051770  0.5316385800917397   T   T   T
  0.6409886548370807  0.7044387200849300  0.4548155821771758   F   F   F
  0.4367877833594562  0.4097684807507775  0.3864132536704119   F   F   F
  0.5736343869917477  0.0590834766913146  0.5714005519986347   T   T   T
  0.1514377461550822  0.5934080233507046  0.3889583608347777   F   F   F
  0.2677397900298786  0.6023375312719352  0.3923062966030031   F   F   F
  0.4402584599838875  0.3221981821637669  0.4703244327181508   F   F   F
  0.2380096658428670  0.1585111292073265  0.4299011866524154   F   F   F
  0.0727809882905907  0.1493008509176460  0.5624706713981670   T   T   T
  0.8449158294672358  0.5449159669615168  0.5995610340815373   T   T   T
  0.6211794283797261  0.2799398764502143  0.4109054511829981   F   F   F
  0.6026669933268991  0.8915266656811696  0.4672234595428861   F   F   F
  0.0313853911711632  0.1952898289720011  0.3889918752683101   F   F   F
  0.6076190904133747  0.1950979194648952  0.5479097986969338   T   T   T
  0.1327997262830110  0.9383546444265392  0.4794870772378772   F   F   F
  0.0800397396567576  0.2801183087571240  0.5121604178650588   T   T   T
  0.3717259956260776  0.1068863464368809  0.5690479190456263   T   T   T
  0.0663554927047941  0.6964898028328180  0.5356376402330436   T   T   T
  0.6664883802395920  0.4153848774500162  0.4300115561107631   F   F   F
  0.7994717507505954  0.7292083755581616  0.5641406065918630   T   T   T
  0.7038385585664102  0.9572084331836876  0.4701845621740759   F   F   F
  0.5991837040773804  0.6356035118435339  0.5526213556044466   T   T   T
  0.7228402998194312  0.2936846539655704  0.4516681052539582   F   F   F
  0.9774359849327513  0.3142757245213904  0.5472138477310188   T   T   T
  0.1582987890852767  0.6298996238511825  0.5707022483030011   T   T   T
  0.6333338447636834  0.3267830791508146  0.5078007023299378   F   F   F
  0.8210214040786361  0.3969741701157486  0.6060415470220489   T   T   T
  0.9585781980424741  0.0272430442537654  0.4169530046787955   F   F   F
  0.2818486846054405  0.1954617898818384  0.5186351497349938   T   T   T
  0.2492575497062219  0.4430328890313291  0.4610556955705079   F   F   F
  0.2731342173038720  0.8506816126907392  0.5687868101918442   T   T   T
  0.2036681492717136  0.6855731693326916  0.4868887178860462   F   F   F
  0.1471234534025641  0.4760698765562736  0.4925449251270066   F   F   F
  0.2249147875529098  0.4237560951332400  0.5569502281522045   T   T   T
  0.9114169782388899  0.4527445980703959  0.4737188145108959   F   F   F
  0.8697881760712605  0.7045601104075629  0.4641535209108483   F   F   F
  0.7381202077648155  0.0928346184210156  0.4452296472671975   F   F   F
  0.2221834364137223  0.9297811896885051  0.4079468165165281   F   F   F
  0.2541454455142466  0.4009330417636467  0.6500296658648069   T   T   T
  0.6305309904011002  0.8824732149793341  0.5936130733766959   T   T   T
  0.4102232652989244  0.7890623918912638  0.4234373851432949   F   F   F
  0.9177713526838360  0.1960382935517870  0.5082451459005242   F   F   F
  0.1325470583719763  0.4435361137187215  0.3322726622007863   F   F   F
  0.1551476808383612  0.3035232550984901  0.3105604161752922   F   F   F
  0.3730051452223293  0.1309070431484400  0.3479534200993726   F   F   F
  0.0353337242485950  0.2929758477787602  0.6330378693863880   T   T   T
  0.5726892607312024  0.2568681912710389  0.3200996781806822   F   F   F
  0.2461789860093467  0.7713984589267820  0.6501282446561517   T   T   T
  0.2073742988503469  0.6484050495897407  0.3103690611938177   F   F   F
  0.2753744117323080  0.3921912989361900  0.3673758273212613   F   F   F
  0.3653508124399352  0.5975866320683707  0.3422207943191111   F   F   F
  0.2263808501748272  0.0561808239321806  0.3581188824802055   F   F   F
  0.2412033349838580  0.1960782275144553  0.3293429668079639   F   F   F
  0.5012729261245497  0.8923016217637851  0.4548416832162587   F   F   F
  0.5500764632614321  0.8281608099613957  0.5343851254972932   T   T   T
  0.5444382573494735  0.6456897542654004  0.6335777564340954   T   T   T
  0.4781790928247115  0.1244785458043125  0.5970221829520164   T   T   T
  0.2620624786139201  0.6953897533619476  0.5686779501438439   T   T   T
  0.4416562980451545  0.8500103862871622  0.5809160369247690   T   T   T
  0.7654683980399059  0.6166892345095339  0.6495798328767496   T   T   T
  0.8449012781050312  0.8317397532538546  0.6227106257726555   T   T   T
  0.6398522828848381  0.7389970097564390  0.6217790749644884   T   T   T
  0.0076064445942675  0.0331411408489936  0.6029923596501298   T   T   T
  0.2836954942397431  0.0035157577593804  0.5935350107088817   T   T   T
  0.5024576122418922  0.9735599011700414  0.6289372706437816   T   T   T
  0.4516853779077574  0.5222547438920643  0.7615650938700566   T   T   T
  0.0832252792112911  0.6064203006159019  0.4064130837160320   F   F   F
  0.4094462117067876  0.7675378874778173  0.5740275785480813   T   T   T
  0.8417638189206400  0.4414531150138714  0.4678389696388976   F   F   F
  0.0170894936360568  0.9904820387337452  0.3936113541928137   F   F   F
  0.0147002065988957  0.2841902735343993  0.3910814136036507   F   F   F
  0.0090771001190887  0.1146453678202684  0.5724229520113727   T   T   T
  0.6090731670391358  0.6571841744634624  0.6109727849256673   T   T   T
  0.2140557267957516  0.4764263880041422  0.5096049627157344   T   T   T
  0.9150621277607272  0.7555609372428762  0.4962545438487922   F   F   F
  0.5205785424525260  0.1104556259083296  0.4259865881079392   F   F   F
  0.4181949898562834  0.1712721911863135  0.5894761576996417   T   T   T
  0.0834525281222085  0.1391720768766334  0.4069808717903314   F   F   F
  0.7018979344879455  0.0448462543081121  0.4873230277072054   F   F   F
  0.6650593546056740  0.8980374632893202  0.4374764361266443   F   F   F
  0.6500987439622605  0.5040270568778311  0.4301508871204760   F   F   F
  0.1984606475206618  0.9124822312100775  0.4639906909803457   F   F   F
  0.2151867568373759  0.3679306334057130  0.6039514426126634   T   T   T
  0.6734098073966214  0.8125063169896014  0.5950097757255673   T   T   T
  0.2166519438746385  0.6421268144031490  0.5386557954644919   T   T   T
  0.3687891183512946  0.7351277331247985  0.4592092972079129   F   F   F
  0.7971239522286427  0.8878762953375798  0.5953643186317633   T   T   T
  0.8794608644145321  0.9120300170366435  0.5118962263811943   T   T   T
  0.5767782936913335  0.5748481226523859  0.5124998527130530   T   T   T
  0.5897601643294414  0.1152861370922805  0.5252477608730098   T   T   T
  0.8581223411646519  0.1521132321647087  0.4951759473310489   F   F   F
  0.8354045027200662  0.6040066192439728  0.6459104183135743   T   T   T
  0.1337385207486648  0.3603189034452470  0.3568722791356791   F   F   F
  0.7906552882913616  0.2799392454557648  0.4418726542293072   F   F   F
  0.3991760967689615  0.1774948437530099  0.3960031981861079   F   F   F
  0.8560816473653605  0.7500103487407148  0.5964649820046717   T   T   T
  0.2829912813196553  0.9356214334853455  0.5497296721354802   T   T   T
  0.0230747322536402  0.3304475144031116  0.5022455100715746   F   F   F
  0.5745593847912573  0.6954900807820579  0.4355643604055430   F   F   F
  0.2302409542041772  0.7526004963776103  0.4519695445397645   F   F   F
  0.5936688999207264  0.2835041794125490  0.5478037185618962   T   T   T
  0.9757158378337415  0.2725272788617024  0.6026303952976219   T   T   T
  0.8889063590224922  0.0254089987032842  0.4242001869335610   F   F   F
  0.1045865097884793  0.1951533261255803  0.5179276381703630   T   T   T
  0.0481456608521569  0.7330370932417907  0.4826301941714348   F   F   F
  0.2320555769443144  0.2068639389238959  0.5611205940528394   T   T   T
  0.5614078070497825  0.2577852695391769  0.3812261074005363   F   F   F
  0.4760878942597990  0.6286549328591251  0.6189576544313620   T   T   T
  0.2819243595085587  0.7711462052546424  0.5977725551407796   T   T   T
  0.2085008252580423  0.6433998443080498  0.3717945352858223   F   F   F
  0.7404605043900270  0.7100878062534195  0.5358828526460898   T   T   T
  0.9861160656002067  0.9902315282801530  0.5503387576746769   T   T   T
  0.7031045577904180  0.7368181529665634  0.4342603982179796   F   F   F
  0.7880303516020316  0.0591007955294896  0.5766966339875514   T   T   T
  0.4563138979678243  0.3284515948311224  0.4092878915485585   F   F   F
  0.4486260863904692  0.9382918270068610  0.5945950491346451   T   T   T
  0.5078501468027177  0.0429892231682117  0.5866432883005170   T   T   T
  0.2442471516429308  0.3704063236853941  0.4209471039025985   F   F   F
  0.6585253436744694  0.3300021106527140  0.4503479098948588   F   F   F
  0.4606886351688539  0.3194044136380967  0.5289878432096703   T   T   T
  0.3372993678081997  0.5899425415699397  0.3990830096962270   F   F   F
  0.8036510953041780  0.4766160768309252  0.5798967668352845   T   T   T
  0.0692097893475037  0.8988591555082337  0.4805055068825652   F   F   F
  0.2119075788177369  0.1444543211161857  0.3735965933534686   F   F   F
  0.0782328565913559  0.4939849948658406  0.4946876202126234   F   F   F
  0.5575701889191933  0.8523400984338849  0.4747302534090920   F   F   F
  0.7183554252449544  0.5842825028891482  0.6096545314482767   T   T   T
  0.2866421241915660  0.2101017383532309  0.4591107728955208   F   F   F
  0.0881127678162080  0.6253577761044716  0.5677438666472263   T   T   T
  0.3527228116815460  0.0211161746458592  0.5785347378115550   T   T   T
  0.4861852222797255  0.4834019944195587  0.5740095062318422   T   T   T
  0.4746101378279212  0.5033884538744665  0.7017292291379651   T   T   T

  0.00000000E+00  0.00000000E+00  0.00000000E+00
  0.00000000E+00  0.00000000E+00  0.00000000E+00
  0.00000000E+00  0.00000000E+00  0.00000000E+00
  0.00000000E+00  0.00000000E+00  0.00000000E+00
  0.00000000E+00  0.00000000E+00  0.00000000E+00
  0.00000000E+00  0.00000000E+00  0.00000000E+00
  0.00000000E+00  0.00000000E+00  0.00000000E+00
  0.00000000E+00  0.00000000E+00  0.00000000E+00
  0.00000000E+00  0.00000000E+00  0.00000000E+00
  0.00000000E+00  0.00000000E+00  0.00000000E+00
  0.00000000E+00  0.00000000E+00  0.00000000E+00
  0.00000000E+00  0.00000000E+00  0.00000000E+00
  0.00000000E+00  0.00000000E+00  0.00000000E+00
  0.00000000E+00  0.00000000E+00  0.00000000E+00
  0.00000000E+00  0.00000000E+00  0.00000000E+00
  0.00000000E+00  0.00000000E+00  0.00000000E+00
  0.00000000E+00  0.00000000E+00  0.00000000E+00
  0.00000000E+00  0.00000000E+00  0.00000000E+00
  0.00000000E+00  0.00000000E+00  0.00000000E+00
  0.00000000E+00  0.00000000E+00  0.00000000E+00
  0.00000000E+00  0.00000000E+00  0.00000000E+00
  0.00000000E+00  0.00000000E+00  0.00000000E+00
  0.00000000E+00  0.00000000E+00  0.00000000E+00
  0.00000000E+00  0.00000000E+00  0.00000000E+00
  0.00000000E+00  0.00000000E+00  0.00000000E+00
  0.00000000E+00  0.00000000E+00  0.00000000E+00
  0.00000000E+00  0.00000000E+00  0.00000000E+00
  0.00000000E+00  0.00000000E+00  0.00000000E+00
  0.00000000E+00  0.00000000E+00  0.00000000E+00
  0.00000000E+00  0.00000000E+00  0.00000000E+00
  0.00000000E+00  0.00000000E+00  0.00000000E+00
  0.00000000E+00  0.00000000E+00  0.00000000E+00
  0.00000000E+00  0.00000000E+00  0.00000000E+00
  0.00000000E+00  0.00000000E+00  0.00000000E+00
  0.00000000E+00  0.00000000E+00  0.00000000E+00
  0.00000000E+00  0.00000000E+00  0.00000000E+00
  0.00000000E+00  0.00000000E+00  0.00000000E+00
  0.00000000E+00  0.00000000E+00  0.00000000E+00
  0.00000000E+00  0.00000000E+00  0.00000000E+00
  0.00000000E+00  0.00000000E+00  0.00000000E+00
  0.00000000E+00  0.00000000E+00  0.00000000E+00
  0.00000000E+00  0.00000000E+00  0.00000000E+00
  0.00000000E+00  0.00000000E+00  0.00000000E+00
  0.00000000E+00  0.00000000E+00  0.00000000E+00
  0.00000000E+00  0.00000000E+00  0.00000000E+00
  0.00000000E+00  0.00000000E+00  0.00000000E+00
  0.00000000E+00  0.00000000E+00  0.00000000E+00
  0.00000000E+00  0.00000000E+00  0.00000000E+00
  0.00000000E+00  0.00000000E+00  0.00000000E+00
  0.00000000E+00  0.00000000E+00  0.00000000E+00
  0.00000000E+00  0.00000000E+00  0.00000000E+00
  0.00000000E+00  0.00000000E+00  0.00000000E+00
  0.00000000E+00  0.00000000E+00  0.00000000E+00
  0.00000000E+00  0.00000000E+00  0.00000000E+00
  0.00000000E+00  0.00000000E+00  0.00000000E+00
  0.00000000E+00  0.00000000E+00  0.00000000E+00
  0.00000000E+00  0.00000000E+00  0.00000000E+00
  0.00000000E+00  0.00000000E+00  0.00000000E+00
  0.00000000E+00  0.00000000E+00  0.00000000E+00
  0.00000000E+00  0.00000000E+00  0.00000000E+00
  0.00000000E+00  0.00000000E+00  0.00000000E+00
  0.00000000E+00  0.00000000E+00  0.00000000E+00
  0.00000000E+00  0.00000000E+00  0.00000000E+00
  0.00000000E+00  0.00000000E+00  0.00000000E+00
  0.00000000E+00  0.00000000E+00  0.00000000E+00
  0.00000000E+00  0.00000000E+00  0.00000000E+00
  0.00000000E+00  0.00000000E+00  0.00000000E+00
  0.00000000E+00  0.00000000E+00  0.00000000E+00
  0.00000000E+00  0.00000000E+00  0.00000000E+00
  0.00000000E+00  0.00000000E+00  0.00000000E+00
  0.00000000E+00  0.00000000E+00  0.00000000E+00
  0.00000000E+00  0.00000000E+00  0.00000000E+00
  0.00000000E+00  0.00000000E+00  0.00000000E+00
  0.00000000E+00  0.00000000E+00  0.00000000E+00
  0.00000000E+00  0.00000000E+00  0.00000000E+00
  0.00000000E+00  0.00000000E+00  0.00000000E+00
  0.00000000E+00  0.00000000E+00  0.00000000E+00
  0.00000000E+00  0.00000000E+00  0.00000000E+00
  0.00000000E+00  0.00000000E+00  0.00000000E+00
  0.00000000E+00  0.00000000E+00  0.00000000E+00
  0.00000000E+00  0.00000000E+00  0.00000000E+00
  0.00000000E+00  0.00000000E+00  0.00000000E+00
  0.00000000E+00  0.00000000E+00  0.00000000E+00
  0.00000000E+00  0.00000000E+00  0.00000000E+00
  0.00000000E+00  0.00000000E+00  0.00000000E+00
  0.00000000E+00  0.00000000E+00  0.00000000E+00
  0.00000000E+00  0.00000000E+00  0.00000000E+00
  0.00000000E+00  0.00000000E+00  0.00000000E+00
  0.00000000E+00  0.00000000E+00  0.00000000E+00
  0.00000000E+00  0.00000000E+00  0.00000000E+00
  0.00000000E+00  0.00000000E+00  0.00000000E+00
  0.00000000E+00  0.00000000E+00  0.00000000E+00
  0.00000000E+00  0.00000000E+00  0.00000000E+00
  0.00000000E+00  0.00000000E+00  0.00000000E+00
  0.00000000E+00  0.00000000E+00  0.00000000E+00
  0.00000000E+00  0.00000000E+00  0.00000000E+00
  0.00000000E+00  0.00000000E+00  0.00000000E+00
  0.00000000E+00  0.00000000E+00  0.00000000E+00
  0.00000000E+00  0.00000000E+00  0.00000000E+00
  0.00000000E+00  0.00000000E+00  0.00000000E+00
  0.00000000E+00  0.00000000E+00  0.00000000E+00
  0.00000000E+00  0.00000000E+00  0.00000000E+00
  0.00000000E+00  0.00000000E+00  0.00000000E+00
  0.00000000E+00  0.00000000E+00  0.00000000E+00
  0.00000000E+00  0.00000000E+00  0.00000000E+00
  0.00000000E+00  0.00000000E+00  0.00000000E+00
  0.00000000E+00  0.00000000E+00  0.00000000E+00
  0.00000000E+00  0.00000000E+00  0.00000000E+00
  0.00000000E+00  0.00000000E+00  0.00000000E+00
  0.00000000E+00  0.00000000E+00  0.00000000E+00
  0.00000000E+00  0.00000000E+00  0.00000000E+00
  0.00000000E+00  0.00000000E+00  0.00000000E+00
  0.00000000E+00  0.00000000E+00  0.00000000E+00
  0.00000000E+00  0.00000000E+00  0.00000000E+00
  0.00000000E+00  0.00000000E+00  0.00000000E+00
  0.00000000E+00  0.00000000E+00  0.00000000E+00
  0.00000000E+00  0.00000000E+00  0.00000000E+00
  0.00000000E+00  0.00000000E+00  0.00000000E+00
  0.00000000E+00  0.00000000E+00  0.00000000E+00
  0.00000000E+00  0.00000000E+00  0.00000000E+00
  0.00000000E+00  0.00000000E+00  0.00000000E+00
  0.00000000E+00  0.00000000E+00  0.00000000E+00
  0.00000000E+00  0.00000000E+00  0.00000000E+00
  0.00000000E+00  0.00000000E+00  0.00000000E+00
  0.00000000E+00  0.00000000E+00  0.00000000E+00
  0.00000000E+00  0.00000000E+00  0.00000000E+00
  0.00000000E+00  0.00000000E+00  0.00000000E+00
  0.00000000E+00  0.00000000E+00  0.00000000E+00
  0.00000000E+00  0.00000000E+00  0.00000000E+00
  0.00000000E+00  0.00000000E+00  0.00000000E+00
  0.00000000E+00  0.00000000E+00  0.00000000E+00
  0.00000000E+00  0.00000000E+00  0.00000000E+00
  0.00000000E+00  0.00000000E+00  0.00000000E+00
  0.00000000E+00  0.00000000E+00  0.00000000E+00
  0.00000000E+00  0.00000000E+00  0.00000000E+00
  0.00000000E+00  0.00000000E+00  0.00000000E+00
  0.00000000E+00  0.00000000E+00  0.00000000E+00
  0.00000000E+00  0.00000000E+00  0.00000000E+00
  0.00000000E+00  0.00000000E+00  0.00000000E+00
  0.00000000E+00  0.00000000E+00  0.00000000E+00
  0.00000000E+00  0.00000000E+00  0.00000000E+00
  0.00000000E+00  0.00000000E+00  0.00000000E+00
  0.00000000E+00  0.00000000E+00  0.00000000E+00
  0.00000000E+00  0.00000000E+00  0.00000000E+00
  0.00000000E+00  0.00000000E+00  0.00000000E+00
  0.00000000E+00  0.00000000E+00  0.00000000E+00
  0.00000000E+00  0.00000000E+00  0.00000000E+00
  0.00000000E+00  0.00000000E+00  0.00000000E+00
  0.00000000E+00  0.00000000E+00  0.00000000E+00
  0.00000000E+00  0.00000000E+00  0.00000000E+00
  0.00000000E+00  0.00000000E+00  0.00000000E+00
  0.00000000E+00  0.00000000E+00  0.00000000E+00
  0.00000000E+00  0.00000000E+00  0.00000000E+00
  0.00000000E+00  0.00000000E+00  0.00000000E+00
  0.00000000E+00  0.00000000E+00  0.00000000E+00
  0.00000000E+00  0.00000000E+00  0.00000000E+00
  0.00000000E+00  0.00000000E+00  0.00000000E+00
  0.00000000E+00  0.00000000E+00  0.00000000E+00
  0.00000000E+00  0.00000000E+00  0.00000000E+00
  0.00000000E+00  0.00000000E+00  0.00000000E+00
  0.00000000E+00  0.00000000E+00  0.00000000E+00
  0.00000000E+00  0.00000000E+00  0.00000000E+00
  0.00000000E+00  0.00000000E+00  0.00000000E+00
  0.00000000E+00  0.00000000E+00  0.00000000E+00
  0.00000000E+00  0.00000000E+00  0.00000000E+00
  0.00000000E+00  0.00000000E+00  0.00000000E+00
  0.00000000E+00  0.00000000E+00  0.00000000E+00
  0.00000000E+00  0.00000000E+00  0.00000000E+00
  0.00000000E+00  0.00000000E+00  0.00000000E+00
  0.00000000E+00  0.00000000E+00  0.00000000E+00
  0.00000000E+00  0.00000000E+00  0.00000000E+00
  0.00000000E+00  0.00000000E+00  0.00000000E+00
  0.00000000E+00  0.00000000E+00  0.00000000E+00
  0.00000000E+00  0.00000000E+00  0.00000000E+00
  0.00000000E+00  0.00000000E+00  0.00000000E+00
  0.00000000E+00  0.00000000E+00  0.00000000E+00
  0.00000000E+00  0.00000000E+00  0.00000000E+00
  0.00000000E+00  0.00000000E+00  0.00000000E+00
  0.00000000E+00  0.00000000E+00  0.00000000E+00
  0.00000000E+00  0.00000000E+00  0.00000000E+00
  0.00000000E+00  0.00000000E+00  0.00000000E+00
  0.00000000E+00  0.00000000E+00  0.00000000E+00
  0.00000000E+00  0.00000000E+00  0.00000000E+00
  0.00000000E+00  0.00000000E+00  0.00000000E+00
  0.00000000E+00  0.00000000E+00  0.00000000E+00
  0.00000000E+00  0.00000000E+00  0.00000000E+00
  0.00000000E+00  0.00000000E+00  0.00000000E+00
  0.00000000E+00  0.00000000E+00  0.00000000E+00
  0.00000000E+00  0.00000000E+00  0.00000000E+00
  0.00000000E+00  0.00000000E+00  0.00000000E+00
  0.00000000E+00  0.00000000E+00  0.00000000E+00
  0.00000000E+00  0.00000000E+00  0.00000000E+00
  0.00000000E+00  0.00000000E+00  0.00000000E+00