 C  H  O Si  W                          
   1.0000000000000000     
    23.4112945954000011    0.0000000000000000    0.0000000000000000
     0.0000000000000000   18.1212369514000002    0.0000000000000000
     0.0000000000000000    0.0000000000000000   26.8833665072999999
   C    H    O    Si   W 
     4    52   154    65     1
Selective dynamics
Direct
  0.5641831663413299  0.4390813663300790  0.7756430890551371   T   T   T
  0.5419581026938687  0.4943020119892125  0.7412327041954825   T   T   T
  0.5463238818668188  0.3594885700955572  0.7762586089654420   T   T   T
  0.5614919142514552  0.5738815447060546  0.7534283035653857   T   T   T
  0.7607824171161823  0.1028521104006757  0.6511672639317467   F   F   F
  0.9264276758775409  0.2786689628389283  0.3563349293400009   F   F   F
  0.7933396966928186  0.2072788972396751  0.3734565163880745   F   F   F
  0.9745391127316694  0.9436086005532900  0.3253027906056829   F   F   F
  0.6257326647787878  0.9634728499897562  0.3752311999972449   F   F   F
  0.8205383986272707  0.9950066635937915  0.3689926296547128   F   F   F
  0.7499930738495308  0.1411787558468731  0.4580381926778543   F   F   F
  0.9154367335582734  0.2494635128192897  0.5091031967724859   F   F   F
  0.5834928632816769  0.3042635462298904  0.3059271726651787   F   F   F
  0.8912413813477400  0.3345386527298260  0.6159675698998299   F   F   F
  0.5840273817086796  0.3614796367455853  0.6131555790780396   F   F   F
  0.5934223684857969  0.8711128595088908  0.5780506039535638   F   F   F
  0.0341611765019962  0.3382234120665402  0.6516505879842640   F   F   F
  0.9352705076763712  0.4195142257503406  0.4541014552468710   F   F   F
  0.7461383787735159  0.5303119924306614  0.4224881911837883   F   F   F
  0.7977692305887842  0.3825162576352952  0.6347630160462359   F   F   F
  0.5911020174091490  0.5686828267211084  0.3780347436188976   F   F   F
  0.7184337867802384  0.6459327858135424  0.3834605945055571   F   F   F
  0.8411529142292764  0.5424265960688572  0.4195961671555111   F   F   F
  0.0047645486475076  0.6037981492295330  0.3577783004107076   F   F   F
  0.8283586993267491  0.7123566734117333  0.4679422553080954   F   F   F
  0.8779037794880225  0.5988265920970903  0.7207398914980985   F   F   F
  0.5199903139612303  0.9855647615614487  0.4217030704774842   F   F   F
  0.2230945721612159  0.9801548351936802  0.3932050219465495   F   F   F
  0.2163736907482345  0.2378514580028224  0.3192303272980936   F   F   F
  0.1575010503616241  0.3298062300070157  0.2789829167401123   F   F   F
  0.3415468765692253  0.1555857055490506  0.3307727584112428   F   F   F
  0.2227158616647102  0.0457589260230407  0.3227384335196248   F   F   F
  0.5116003420907376  0.8243204468105887  0.5467364531534145   F   F   F
  0.3850176248073325  0.2456640896714717  0.6479328779765012   F   F   F
  0.2441613984106752  0.0929194003892206  0.5985487498436015   F   F   F
  0.3153809713091036  0.4871364645735810  0.4424346656312608   F   F   F
  0.4089561837294582  0.4387348586869422  0.4056905975982730   F   F   F
  0.3984995032241372  0.7931136076499854  0.3887867966224334   F   F   F
  0.2442023571188656  0.6554300787776768  0.2943268807443218   F   F   F
  0.3117413815567005  0.4184757135367221  0.3692576443915385   F   F   F
  0.4054742948844066  0.5842796534641153  0.3388198885480591   F   F   F
  0.1393576205880507  0.4879736465794622  0.3519294596467617   F   F   F
  0.5932693451318087  0.6979871284243586  0.3523979868156601   F   F   F
  0.4690068301459220  0.8614274692379169  0.4438283837725479   F   F   F
  0.1220867229094367  0.3226501988116652  0.6115832431647235   F   F   F
  0.0735048787483947  0.6646151335817976  0.6458997715625330   F   F   F
  0.2449467103011784  0.3829778414098115  0.6821062132420295   F   F   F
  0.2448718212331968  0.8152132251436726  0.6688957801978148   F   F   F
  0.5782571783719348  0.4609855302634145  0.7203148599083136   T   T   T
  0.5966552065815947  0.4581479707649407  0.8019581765767043   T   T   T
  0.5495471357447030  0.3377515781675484  0.8144184206943024   T   T   T
  0.5021786944638080  0.3527834520581763  0.7632409254880486   T   T   T
  0.5740422695728498  0.3242644538199073  0.7528347253775323   T   T   T
  0.5331285040137246  0.5957369047437098  0.7825696521583794   T   T   T
  0.6055698569040331  0.5737018606866826  0.7679519334804539   T   T   T
  0.5596575933276497  0.6113666750529845  0.7215226066047578   T   T   T
  0.3689417337945073  0.6483550974205130  0.4390000177989322   F   F   F
  0.3468156499810249  0.5040338679473777  0.4203881275781143   F   F   F
  0.8605301064224804  0.5660216151823576  0.6966467287887710   F   F   F
  0.3488743392137295  0.9575379331111833  0.5305100576312114   F   F   F
  0.0334100834121287  0.9325639930394587  0.5284976448183869   F   F   F
  0.6363554822990451  0.0788685455599989  0.4893766723794641   F   F   F
  0.0686461464807948  0.0522654214745515  0.3951107345583225   F   F   F
  0.4518995424319527  0.1295623248292515  0.4205972814427668   F   F   F
  0.8058841492861291  0.2136501796918466  0.4831666074103040   F   F   F
  0.9731164114831614  0.1815260626462063  0.5987746587251976   F   F   F
  0.2747652928840907  0.2991728710101214  0.4485122250900346   F   F   F
  0.5563541661963498  0.7750912911781072  0.4417510122690658   F   F   F
  0.3926762871078324  0.9720978023626117  0.6193688075199475   F   F   F
  0.1775172398589788  0.3499684493290118  0.4052731245300478   F   F   F
  0.8664562272536429  0.6840585359765541  0.6373617289481359   F   F   F
  0.8656960102276017  0.9671769320775354  0.4670384592975196   F   F   F
  0.3010471365896024  0.7609368348742791  0.4579252567998537   F   F   F
  0.4216109456219570  0.2612522170148708  0.3795963030273342   F   F   F
  0.8108464872718173  0.4655308707303334  0.5200094137406523   F   F   F
  0.9834673199770592  0.0727623262897268  0.5212500414425705   F   F   F
  0.5194672875344253  0.4601392122811916  0.6282163418491606   F   F   F
  0.0345364061182565  0.9199477616519545  0.4294052572495062   F   F   F
  0.9630365419446250  0.3031953079439518  0.3512576249606170   F   F   F
  0.0696266904488567  0.3361057655302346  0.3763717815531962   F   F   F
  0.2082956575310035  0.7286442941956537  0.3953601014000157   F   F   F
  0.0389012629134911  0.4191019155796809  0.4991087535393461   F   F   F
  0.2395026327426493  0.2857292706395356  0.5878649771008639   F   F   F
  0.3970367208883943  0.1947970933563852  0.6440558602354329   F   F   F
  0.4556317914357706  0.5599452590535705  0.5839956655735534   F   F   F
  0.9097264611470735  0.7491782086993126  0.5575173233659427   F   F   F
  0.8691272713299156  0.1080433423588048  0.4422783307318099   F   F   F
  0.5725767945756743  0.6673318528661909  0.3761317316733468   F   F   F
  0.1424265590957958  0.1591254988132746  0.3759722435750490   F   F   F
  0.3504483345506060  0.7654179361630256  0.6066157688546738   F   F   F
  0.9109960497951874  0.8450475714254182  0.4831796236075121   F   F   F
  0.0613380104910135  0.5368717058331640  0.4422534820284341   F   F   F
  0.7083390277084121  0.5551665518466606  0.4199576800001736   F   F   F
  0.0754872572765848  0.8168068048942771  0.4829941554854784   F   F   F
  0.7004647711973604  0.8275557150113073  0.4326352913293690   F   F   F
  0.7302009548085806  0.0490875095071033  0.5429937390981721   F   F   F
  0.9186433948775417  0.3017295053430686  0.6320296336124329   F   F   F
  0.7349280839090397  0.8529535086494988  0.6130092778016589   F   F   F
  0.6251219543867705  0.5273940020615839  0.4863787091564404   F   F   F
  0.5565732987385132  0.6297030403834256  0.4672494240254110   F   F   F
  0.4268942933711628  0.2462162241777648  0.5552852291052162   F   F   F
  0.9782900938336425  0.7282436336050182  0.4767956400891720   F   F   F
  0.6538446296541025  0.5943711156105422  0.6335296768437644   F   F   F
  0.3967043118220062  0.7464415666314537  0.5151502276056448   F   F   F
  0.6026900685395375  0.5176654517715136  0.3856709925442061   F   F   F
  0.7193958846155297  0.6312769282788793  0.5570503905671771   F   F   F
  0.1467993117673174  0.3639458483043683  0.6199100653344942   F   F   F
  0.0663170290200767  0.5485629229491380  0.5419540154322817   F   F   F
  0.8188664020325902  0.8845975247214710  0.5366997383414969   F   F   F
  0.8282155306614527  0.3553851427237973  0.4519033357708793   F   F   F
  0.5280060453895388  0.2975404058637920  0.5299168860802297   F   F   F
  0.7365601350874940  0.4993477284885159  0.5954751510605192   F   F   F
  0.5574339360995921  0.1724311051770471  0.3949085375269945   F   F   F
  0.8059640829904495  0.2564125704700402  0.3832928600033014   F   F   F
  0.2374462167629616  0.9532507504721153  0.5079195554207132   F   F   F
  0.6928818011930318  0.7763878521881296  0.5415042884102164   F   F   F
  0.9238134274579650  0.9497499768633446  0.5529715198120186   F   F   F
  0.5257372223541736  0.3177811195808147  0.3985559351687087   F   F   F
  0.4687710064182724  0.9897868995415280  0.5456300307055457   F   F   F
  0.8377091577434683  0.0948919789363742  0.5398444732026917   F   F   F
  0.5379032530424510  0.1164174893117362  0.4862370923690094   F   F   F
  0.3501934425152129  0.1866087324322407  0.4396363938456389   F   F   F
  0.0117603228167908  0.9624138998997935  0.3352437574830063   F   F   F
  0.4527093939471811  0.5958492321500728  0.6768584233584320   F   F   F
  0.6549652215522386  0.9253975043083074  0.3792282539811964   F   F   F
  0.0762933429470323  0.6860262574042792  0.4358810225764742   F   F   F
  0.4544591315565683  0.4032057924910006  0.5541426432030718   F   F   F
  0.7192194366265099  0.7004208513439565  0.3795829994963285   F   F   F
  0.4507555097938933  0.7037258987493828  0.5991502846375312   F   F   F
  0.7525510591055777  0.7093245754016806  0.4762954835743187   F   F   F
  0.7784671118893129  0.1208343770600706  0.6209015230445658   F   F   F
  0.9932746155468877  0.3080134734220721  0.4484029789284989   F   F   F
  0.5332198752138027  0.5080077229804445  0.5305177060205679   F   F   F
  0.8167775852155614  0.4990617344698620  0.4234422052650615   F   F   F
  0.2356889277250360  0.1447517428681522  0.6052945998425798   F   F   F
  0.2035333057163413  0.8307013160788728  0.4705336293601903   F   F   F
  0.2400757292707993  0.5586061033524174  0.5228510765216825   F   F   F
  0.0613947996709925  0.6253780774216153  0.6238111247542051   F   F   F
  0.0460740722049948  0.6023466921755443  0.3541786312221902   F   F   F
  0.8007069844510823  0.9787056194816870  0.6058411455839519   F   F   F
  0.5379909097114037  0.0276974917800175  0.4045027517534763   F   F   F
  0.6031041125671095  0.3153043419963240  0.6047345252670553   F   F   F
  0.8615461075340960  0.0040808494918636  0.3692063291070653   F   F   F
  0.0949113079819810  0.1490228354028815  0.4670823258906296   F   F   F
  0.1714430064928152  0.2039990010323862  0.5309058741931239   F   F   F
  0.6409886548841044  0.7044387202342079  0.4548155821771758   F   F   F
  0.4367877834064799  0.4097684809000555  0.3864132536704119   F   F   F
  0.5747719749517088  0.0582512421763610  0.5709135001594845   F   F   F
  0.1514377462021059  0.5934080234999826  0.3889583608347777   F   F   F
  0.2677397900769023  0.6023375314212132  0.3923062966030031   F   F   F
  0.4402584600309112  0.3221981823130449  0.4703244327181508   F   F   F
  0.2380096658898907  0.1585111293566044  0.4299011866524154   F   F   F
  0.0727566753063869  0.1500920054328674  0.5625270673608540   F   F   F
  0.8446893047530466  0.5442313913074486  0.5996388330293172   F   F   F
  0.6211794284267498  0.2799398765994923  0.4109054511829981   F   F   F
  0.6026669933739228  0.8915266658304475  0.4672234595428861   F   F   F
  0.0313853912181870  0.1952898291212790  0.3889918752683101   F   F   F
  0.6077847199686559  0.1956264507828394  0.5479137443283975   F   F   F
  0.1327997263300347  0.9383546445758171  0.4794870772378772   F   F   F
  0.0802250977214598  0.2803177932208527  0.5116102063846526   F   F   F
  0.3729363937469472  0.1038697240989634  0.5686415291841342   F   F   F
  0.0666174166366460  0.6969698228661585  0.5357371714181696   F   F   F
  0.6664883802866157  0.4153848775992941  0.4300115561107631   F   F   F
  0.7993493083194139  0.7294676192099772  0.5641728522391034   F   F   F
  0.7038385586134339  0.9572084333329656  0.4701845621740759   F   F   F
  0.5966147403174631  0.6337422466587626  0.5535856014851035   F   F   F
  0.7228402998664549  0.2936846541148483  0.4516681052539582   F   F   F
  0.9775351352330475  0.3142453034511306  0.5472630377333800   F   F   F
  0.1584202449851944  0.6299214979443875  0.5705584589731458   F   F   F
  0.6333338448107071  0.3267830793000925  0.5078007023299378   F   F   F
  0.8193572137421867  0.3964390147839865  0.6054234794138864   F   F   F
  0.9585781980894978  0.0272430444030434  0.4169530046787955   F   F   F
  0.2820668974430660  0.1949375978726664  0.5186412703660253   F   F   F
  0.2492575497532457  0.4430328891806070  0.4610556955705079   F   F   F
  0.2718921195223203  0.8496578791040790  0.5688918125664983   F   F   F
  0.2036681493187373  0.6855731694819696  0.4868887178860462   F   F   F
  0.1471234534495878  0.4760698767055516  0.4925449251270066   F   F   F
  0.2244143633997879  0.4226610367948069  0.5568039044963342   F   F   F
  0.9114169782859136  0.4527445982196738  0.4737188145108959   F   F   F
  0.8697881761182842  0.7045601105568409  0.4641535209108483   F   F   F
  0.7381202078118392  0.0928346185702935  0.4452296472671975   F   F   F
  0.2221834364607460  0.9297811898377830  0.4079468165165281   F   F   F
  0.2520379555928329  0.4025762891894118  0.6491534180518599   F   F   F
  0.6304893605176574  0.8833602623682353  0.5934399590489292   F   F   F
  0.4102232653459481  0.7890623920405417  0.4234373851432949   F   F   F
  0.9177713527308597  0.1960382937010650  0.5082451459005242   F   F   F
  0.1325470584190001  0.4435361138679994  0.3322726622007863   F   F   F
  0.1551476808853849  0.3035232552477680  0.3105604161752922   F   F   F
  0.3730051452693530  0.1309070432977180  0.3479534200993726   F   F   F
  0.0343925423858877  0.2918383523842678  0.6335663859729550   F   F   F
  0.5726892607782261  0.2568681914203168  0.3200996781806822   F   F   F
  0.2447014796126581  0.7699357137805407  0.6496620940950564   F   F   F
  0.2073742988973706  0.6484050497390186  0.3103690611938177   F   F   F
  0.2753744117793318  0.3921912990854679  0.3673758273212613   F   F   F
  0.3653508124869589  0.5975866322176486  0.3422207943191111   F   F   F
  0.2263808502218509  0.0561808240814585  0.3581188824802055   F   F   F
  0.2412033350308818  0.1960782276637332  0.3293429668079639   F   F   F
  0.5012729261715734  0.8923016219130631  0.4548416832162587   F   F   F
  0.5504978067026229  0.8277685830978072  0.5343617814333257   F   F   F
  0.5445862166904050  0.6470656080208315  0.6354984197727873   F   F   F
  0.4788181004666896  0.1211109149738689  0.5960755639777986   F   F   F
  0.2627580904338203  0.6939871023952904  0.5684857927851326   F   F   F
  0.4429812198798189  0.8464707863145122  0.5812133015837659   F   F   F
  0.7653221570901749  0.6169469299760735  0.6494819847169992   F   F   F
  0.8446878293664142  0.8316482269779897  0.6230437298887992   F   F   F
  0.6396284568564923  0.7395161517390676  0.6209352206103418   F   F   F
  0.0081145840564787  0.0333824974375503  0.6029896150106637   F   F   F
  0.2848741738054201  0.0015571096256863  0.5937461855007200   F   F   F
  0.5043028910023395  0.9706303816809694  0.6278793411306012   F   F   F
  0.4334730508693525  0.4218283022878140  0.7076946879779413   T   T   T
  0.0832252792583148  0.6064203007651798  0.4064130837160320   F   F   F
  0.4090002513141755  0.7653138473876595  0.5743773774151748   F   F   F
  0.8417638189676637  0.4414531151631493  0.4678389696388976   F   F   F
  0.0170894936830805  0.9904820388830231  0.3936113541928137   F   F   F
  0.0147002066459194  0.2841902736836772  0.3910814136036507   F   F   F
  0.0092136009462962  0.1150209707810177  0.5725016647472430   F   F   F
  0.6088808112339947  0.6575471025920407  0.6111276280941738   F   F   F
  0.2139845818525430  0.4758058237132161  0.5097401510627861   F   F   F
  0.9150621278077509  0.7555609373921541  0.4962545438487922   F   F   F
  0.5205785424995497  0.1104556260576075  0.4259865881079392   F   F   F
  0.4190457610715299  0.1688498838807533  0.5889212411866751   F   F   F
  0.0834525281692322  0.1391720770259113  0.4069808717903314   F   F   F
  0.7018979345349692  0.0448462544573900  0.4873230277072054   F   F   F
  0.6650593546526977  0.8980374634385981  0.4374764361266443   F   F   F
  0.6500987440092842  0.5040270570271090  0.4301508871204760   F   F   F
  0.1984606475676856  0.9124822313593555  0.4639906909803457   F   F   F
  0.2144029234223908  0.3664707590930192  0.6035822820940027   F   F   F
  0.6734863645787144  0.8135587635005805  0.5946453983742472   F   F   F
  0.2167892369000057  0.6414476956054642  0.5384502135468594   F   F   F
  0.3687891183983183  0.7351277332740764  0.4592092972079129   F   F   F
  0.7973495187725916  0.8884653686871431  0.5957074782719189   F   F   F
  0.8797690518764938  0.9122634892068220  0.5119947806916016   F   F   F
  0.5761087204139841  0.5743391098144670  0.5118558721338786   F   F   F
  0.5899675821657766  0.1157794599027824  0.5251981705119135   F   F   F
  0.8581223412116756  0.1521132323139867  0.4951759473310489   F   F   F
  0.8352726479334649  0.6036311376159347  0.6457842233912032   F   F   F
  0.1337385207956885  0.3603189035945249  0.3568722791356791   F   F   F
  0.7906552883383853  0.2799392456050427  0.4418726542293072   F   F   F
  0.3991760968159852  0.1774948439022879  0.3960031981861079   F   F   F
  0.8559659425633583  0.7500609490464925  0.5965592931605102   F   F   F
  0.2829243548402616  0.9343302317299518  0.5496178785548835   F   F   F
  0.0230747323006639  0.3304475145523895  0.5022455100715746   F   F   F
  0.5745593848382811  0.6954900809313358  0.4355643604055430   F   F   F
  0.2302409542512009  0.7526004965268882  0.4519695445397645   F   F   F
  0.5934462568657253  0.2842238623612445  0.5480411249676465   F   F   F
  0.9750901707725816  0.2723268179298444  0.6026490046142285   F   F   F
  0.8889063590695159  0.0254089988525621  0.4242001869335610   F   F   F
  0.1047279491586153  0.1954155642663196  0.5177672538753342   F   F   F
  0.0481456608991806  0.7330370933910686  0.4826301941714348   F   F   F
  0.2319992166939855  0.2055998966069055  0.5610855266482631   F   F   F
  0.5614078070968063  0.2577852696884548  0.3812261074005363   F   F   F
  0.4762176009008812  0.6276004897515222  0.6227470078169191   F   F   F
  0.2811963362534655  0.7701781475026124  0.5976742426741453   F   F   F
  0.2085008253050660  0.6433998444573277  0.3717945352858223   F   F   F
  0.7403696181055182  0.7108104784713305  0.5358367494130007   F   F   F
  0.9865178297966182  0.9906088733219178  0.5503501617887139   F   F   F
  0.7031045578374417  0.7368181531158413  0.4342603982179796   F   F   F
  0.7878946645347753  0.0594298817509227  0.5767818456318921   F   F   F
  0.4563138980148480  0.3284515949804003  0.4092878915485585   F   F   F
  0.4502073226621306  0.9353318083215711  0.5938988257677522   F   F   F
  0.5091248366079029  0.0402490697780209  0.5856038102799843   F   F   F
  0.2442471516899545  0.3704063238346720  0.4209471039025985   F   F   F
  0.6585253437214931  0.3300021108019919  0.4503479098948588   F   F   F
  0.4609019610054617  0.3177855799015674  0.5287369624630500   F   F   F
  0.3372993678552234  0.5899425417192177  0.3990830096962270   F   F   F
  0.8028955920816827  0.4765579533244590  0.5796482924553032   F   F   F
  0.0692097893945274  0.8988591556575116  0.4805055068825652   F   F   F
  0.2119075788647606  0.1444543212654636  0.3735965933534686   F   F   F
  0.0782328566383796  0.4939849950151185  0.4946876202126234   F   F   F
  0.5575701889662170  0.8523400985831628  0.4747302534090920   F   F   F
  0.7180631582700130  0.5848747843213289  0.6095778684152080   F   F   F
  0.2866421242385897  0.2101017385025088  0.4591107728955208   F   F   F
  0.0882391690290163  0.6255015352392377  0.5676410202687876   F   F   F
  0.3538258888449946  0.0183657212899249  0.5782710305824423   F   F   F
  0.4891896908554614  0.4790204147545580  0.5737665029063450   F   F   F
  0.4768785656732959  0.4942094622792865  0.6894647826413582   T   T   T

  0.00000000E+00  0.00000000E+00  0.00000000E+00
  0.00000000E+00  0.00000000E+00  0.00000000E+00
  0.00000000E+00  0.00000000E+00  0.00000000E+00
  0.00000000E+00  0.00000000E+00  0.00000000E+00
  0.00000000E+00  0.00000000E+00  0.00000000E+00
  0.00000000E+00  0.00000000E+00  0.00000000E+00
  0.00000000E+00  0.00000000E+00  0.00000000E+00
  0.00000000E+00  0.00000000E+00  0.00000000E+00
  0.00000000E+00  0.00000000E+00  0.00000000E+00
  0.00000000E+00  0.00000000E+00  0.00000000E+00
  0.00000000E+00  0.00000000E+00  0.00000000E+00
  0.00000000E+00  0.00000000E+00  0.00000000E+00
  0.00000000E+00  0.00000000E+00  0.00000000E+00
  0.00000000E+00  0.00000000E+00  0.00000000E+00
  0.00000000E+00  0.00000000E+00  0.00000000E+00
  0.00000000E+00  0.00000000E+00  0.00000000E+00
  0.00000000E+00  0.00000000E+00  0.00000000E+00
  0.00000000E+00  0.00000000E+00  0.00000000E+00
  0.00000000E+00  0.00000000E+00  0.00000000E+00
  0.00000000E+00  0.00000000E+00  0.00000000E+00
  0.00000000E+00  0.00000000E+00  0.00000000E+00
  0.00000000E+00  0.00000000E+00  0.00000000E+00
  0.00000000E+00  0.00000000E+00  0.00000000E+00
  0.00000000E+00  0.00000000E+00  0.00000000E+00
  0.00000000E+00  0.00000000E+00  0.00000000E+00
  0.00000000E+00  0.00000000E+00  0.00000000E+00
  0.00000000E+00  0.00000000E+00  0.00000000E+00
  0.00000000E+00  0.00000000E+00  0.00000000E+00
  0.00000000E+00  0.00000000E+00  0.00000000E+00
  0.00000000E+00  0.00000000E+00  0.00000000E+00
  0.00000000E+00  0.00000000E+00  0.00000000E+00
  0.00000000E+00  0.00000000E+00  0.00000000E+00
  0.00000000E+00  0.00000000E+00  0.00000000E+00
  0.00000000E+00  0.00000000E+00  0.00000000E+00
  0.00000000E+00  0.00000000E+00  0.00000000E+00
  0.00000000E+00  0.00000000E+00  0.00000000E+00
  0.00000000E+00  0.00000000E+00  0.00000000E+00
  0.00000000E+00  0.00000000E+00  0.00000000E+00
  0.00000000E+00  0.00000000E+00  0.00000000E+00
  0.00000000E+00  0.00000000E+00  0.00000000E+00
  0.00000000E+00  0.00000000E+00  0.00000000E+00
  0.00000000E+00  0.00000000E+00  0.00000000E+00
  0.00000000E+00  0.00000000E+00  0.00000000E+00
  0.00000000E+00  0.00000000E+00  0.00000000E+00
  0.00000000E+00  0.00000000E+00  0.00000000E+00
  0.00000000E+00  0.00000000E+00  0.00000000E+00
  0.00000000E+00  0.00000000E+00  0.00000000E+00
  0.00000000E+00  0.00000000E+00  0.00000000E+00
  0.00000000E+00  0.00000000E+00  0.00000000E+00
  0.00000000E+00  0.00000000E+00  0.00000000E+00
  0.00000000E+00  0.00000000E+00  0.00000000E+00
  0.00000000E+00  0.00000000E+00  0.00000000E+00
  0.00000000E+00  0.00000000E+00  0.00000000E+00
  0.00000000E+00  0.00000000E+00  0.00000000E+00
  0.00000000E+00  0.00000000E+00  0.00000000E+00
  0.00000000E+00  0.00000000E+00  0.00000000E+00
  0.00000000E+00  0.00000000E+00  0.00000000E+00
  0.00000000E+00  0.00000000E+00  0.00000000E+00
  0.00000000E+00  0.00000000E+00  0.00000000E+00
  0.00000000E+00  0.00000000E+00  0.00000000E+00
  0.00000000E+00  0.00000000E+00  0.00000000E+00
  0.00000000E+00  0.00000000E+00  0.00000000E+00
  0.00000000E+00  0.00000000E+00  0.00000000E+00
  0.00000000E+00  0.00000000E+00  0.00000000E+00
  0.00000000E+00  0.00000000E+00  0.00000000E+00
  0.00000000E+00  0.00000000E+00  0.00000000E+00
  0.00000000E+00  0.00000000E+00  0.00000000E+00
  0.00000000E+00  0.00000000E+00  0.00000000E+00
  0.00000000E+00  0.00000000E+00  0.00000000E+00
  0.00000000E+00  0.00000000E+00  0.00000000E+00
  0.00000000E+00  0.00000000E+00  0.00000000E+00
  0.00000000E+00  0.00000000E+00  0.00000000E+00
  0.00000000E+00  0.00000000E+00  0.00000000E+00
  0.00000000E+00  0.00000000E+00  0.00000000E+00
  0.00000000E+00  0.00000000E+00  0.00000000E+00
  0.00000000E+00  0.00000000E+00  0.00000000E+00
  0.00000000E+00  0.00000000E+00  0.00000000E+00
  0.00000000E+00  0.00000000E+00  0.00000000E+00
  0.00000000E+00  0.00000000E+00  0.00000000E+00
  0.00000000E+00  0.00000000E+00  0.00000000E+00
  0.00000000E+00  0.00000000E+00  0.00000000E+00
  0.00000000E+00  0.00000000E+00  0.00000000E+00
  0.00000000E+00  0.00000000E+00  0.00000000E+00
  0.00000000E+00  0.00000000E+00  0.00000000E+00
  0.00000000E+00  0.00000000E+00  0.00000000E+00
  0.00000000E+00  0.00000000E+00  0.00000000E+00
  0.00000000E+00  0.00000000E+00  0.00000000E+00
  0.00000000E+00  0.00000000E+00  0.00000000E+00
  0.00000000E+00  0.00000000E+00  0.00000000E+00
  0.00000000E+00  0.00000000E+00  0.00000000E+00
  0.00000000E+00  0.00000000E+00  0.00000000E+00
  0.00000000E+00  0.00000000E+00  0.00000000E+00
  0.00000000E+00  0.00000000E+00  0.00000000E+00
  0.00000000E+00  0.00000000E+00  0.00000000E+00
  0.00000000E+00  0.00000000E+00  0.00000000E+00
  0.00000000E+00  0.00000000E+00  0.00000000E+00
  0.00000000E+00  0.00000000E+00  0.00000000E+00
  0.00000000E+00  0.00000000E+00  0.00000000E+00
  0.00000000E+00  0.00000000E+00  0.00000000E+00
  0.00000000E+00  0.00000000E+00  0.00000000E+00
  0.00000000E+00  0.00000000E+00  0.00000000E+00
  0.00000000E+00  0.00000000E+00  0.00000000E+00
  0.00000000E+00  0.00000000E+00  0.00000000E+00
  0.00000000E+00  0.00000000E+00  0.00000000E+00
  0.00000000E+00  0.00000000E+00  0.00000000E+00
  0.00000000E+00  0.00000000E+00  0.00000000E+00
  0.00000000E+00  0.00000000E+00  0.00000000E+00
  0.00000000E+00  0.00000000E+00  0.00000000E+00
  0.00000000E+00  0.00000000E+00  0.00000000E+00
  0.00000000E+00  0.00000000E+00  0.00000000E+00
  0.00000000E+00  0.00000000E+00  0.00000000E+00
  0.00000000E+00  0.00000000E+00  0.00000000E+00
  0.00000000E+00  0.00000000E+00  0.00000000E+00
  0.00000000E+00  0.00000000E+00  0.00000000E+00
  0.00000000E+00  0.00000000E+00  0.00000000E+00
  0.00000000E+00  0.00000000E+00  0.00000000E+00
  0.00000000E+00  0.00000000E+00  0.00000000E+00
  0.00000000E+00  0.00000000E+00  0.00000000E+00
  0.00000000E+00  0.00000000E+00  0.00000000E+00
  0.00000000E+00  0.00000000E+00  0.00000000E+00
  0.00000000E+00  0.00000000E+00  0.00000000E+00
  0.00000000E+00  0.00000000E+00  0.00000000E+00
  0.00000000E+00  0.00000000E+00  0.00000000E+00
  0.00000000E+00  0.00000000E+00  0.00000000E+00
  0.00000000E+00  0.00000000E+00  0.00000000E+00
  0.00000000E+00  0.00000000E+00  0.00000000E+00
  0.00000000E+00  0.00000000E+00  0.00000000E+00
  0.00000000E+00  0.00000000E+00  0.00000000E+00
  0.00000000E+00  0.00000000E+00  0.00000000E+00
  0.00000000E+00  0.00000000E+00  0.00000000E+00
  0.00000000E+00  0.00000000E+00  0.00000000E+00
  0.00000000E+00  0.00000000E+00  0.00000000E+00
  0.00000000E+00  0.00000000E+00  0.00000000E+00
  0.00000000E+00  0.00000000E+00  0.00000000E+00
  0.00000000E+00  0.00000000E+00  0.00000000E+00
  0.00000000E+00  0.00000000E+00  0.00000000E+00
  0.00000000E+00  0.00000000E+00  0.00000000E+00
  0.00000000E+00  0.00000000E+00  0.00000000E+00
  0.00000000E+00  0.00000000E+00  0.00000000E+00
  0.00000000E+00  0.00000000E+00  0.00000000E+00
  0.00000000E+00  0.00000000E+00  0.00000000E+00
  0.00000000E+00  0.00000000E+00  0.00000000E+00
  0.00000000E+00  0.00000000E+00  0.00000000E+00
  0.00000000E+00  0.00000000E+00  0.00000000E+00
  0.00000000E+00  0.00000000E+00  0.00000000E+00
  0.00000000E+00  0.00000000E+00  0.00000000E+00
  0.00000000E+00  0.00000000E+00  0.00000000E+00
  0.00000000E+00  0.00000000E+00  0.00000000E+00
  0.00000000E+00  0.00000000E+00  0.00000000E+00
  0.00000000E+00  0.00000000E+00  0.00000000E+00
  0.00000000E+00  0.00000000E+00  0.00000000E+00
  0.00000000E+00  0.00000000E+00  0.00000000E+00
  0.00000000E+00  0.00000000E+00  0.00000000E+00
  0.00000000E+00  0.00000000E+00  0.00000000E+00
  0.00000000E+00  0.00000000E+00  0.00000000E+00
  0.00000000E+00  0.00000000E+00  0.00000000E+00
  0.00000000E+00  0.00000000E+00  0.00000000E+00
  0.00000000E+00  0.00000000E+00  0.00000000E+00
  0.00000000E+00  0.00000000E+00  0.00000000E+00
  0.00000000E+00  0.00000000E+00  0.00000000E+00
  0.00000000E+00  0.00000000E+00  0.00000000E+00
  0.00000000E+00  0.00000000E+00  0.00000000E+00
  0.00000000E+00  0.00000000E+00  0.00000000E+00
  0.00000000E+00  0.00000000E+00  0.00000000E+00
  0.00000000E+00  0.00000000E+00  0.00000000E+00
  0.00000000E+00  0.00000000E+00  0.00000000E+00
  0.00000000E+00  0.00000000E+00  0.00000000E+00
  0.00000000E+00  0.00000000E+00  0.00000000E+00
  0.00000000E+00  0.00000000E+00  0.00000000E+00
  0.00000000E+00  0.00000000E+00  0.00000000E+00
  0.00000000E+00  0.00000000E+00  0.00000000E+00
  0.00000000E+00  0.00000000E+00  0.00000000E+00
  0.00000000E+00  0.00000000E+00  0.00000000E+00
  0.00000000E+00  0.00000000E+00  0.00000000E+00
  0.00000000E+00  0.00000000E+00  0.00000000E+00
  0.00000000E+00  0.00000000E+00  0.00000000E+00
  0.00000000E+00  0.00000000E+00  0.00000000E+00
  0.00000000E+00  0.00000000E+00  0.00000000E+00
  0.00000000E+00  0.00000000E+00  0.00000000E+00
  0.00000000E+00  0.00000000E+00  0.00000000E+00
  0.00000000E+00  0.00000000E+00  0.00000000E+00
  0.00000000E+00  0.00000000E+00  0.00000000E+00
  0.00000000E+00  0.00000000E+00  0.00000000E+00
  0.00000000E+00  0.00000000E+00  0.00000000E+00
  0.00000000E+00  0.00000000E+00  0.00000000E+00
  0.00000000E+00  0.00000000E+00  0.00000000E+00
  0.00000000E+00  0.00000000E+00  0.00000000E+00
  0.00000000E+00  0.00000000E+00  0.00000000E+00
  0.00000000E+00  0.00000000E+00  0.00000000E+00
  0.00000000E+00  0.00000000E+00  0.00000000E+00
  0.00000000E+00  0.00000000E+00  0.00000000E+00
  0.00000000E+00  0.00000000E+00  0.00000000E+00
  0.00000000E+00  0.00000000E+00  0.00000000E+00