C  H  O  Si W                           
   1.0000000000000000     
    23.4112945954000011    0.0000000000000000    0.0000000000000000
     0.0000000000000000   18.1212369513999967    0.0000000000000000
     0.0000000000000000    0.0000000000000000   26.8833665072999999
   C    H    O    Si   W 
     4    52   154    65     1
Selective dynamics
Direct
  0.5493331532033441  0.5358604265014435  0.7863407380534266   T   T   T
  0.5135401414859186  0.5905150604333930  0.7997839406189474   T   T   T
  0.5369123066468225  0.4544603818206016  0.7891881240941619   T   T   T
  0.5282813323349775  0.6717311468846655  0.7962426820938585   T   T   T
  0.7616216852088746  0.1562977987584151  0.6512701084354520   T   T   T
  0.9263371441120825  0.3315831290893385  0.3563349293400009   F   F   F
  0.7932491649273601  0.2601930634900853  0.3734565163880745   F   F   F
  0.9744485809662109  0.9965227668037002  0.3253027906056829   F   F   F
  0.6256421330133293  0.0163870162401665  0.3752311999972449   F   F   F
  0.8204478668618123  0.0479208298442018  0.3689926296547128   F   F   F
  0.7499025420840724  0.1940929220972833  0.4580381926778543   F   F   F
  0.9154452876858328  0.3023627470709355  0.5096353520681582   T   T   T
  0.5834023315162185  0.3571777124803006  0.3059271726651787   F   F   F
  0.8917876969147157  0.3878967549760889  0.6165968618030079   T   T   T
  0.5873267719923643  0.4108522698250145  0.6154978151499206   T   T   T
  0.5935758188028640  0.9239834298784844  0.5780361371910303   T   T   T
  0.0336825027953123  0.3906327102228339  0.6522397966466403   T   T   T
  0.9351799759109127  0.4724283920007508  0.4541014552468710   F   F   F
  0.7460478470080574  0.5832261586810716  0.4224881911837883   F   F   F
  0.7980189885564255  0.4356707452001872  0.6350493487903806   T   T   T
  0.5910114856436905  0.6215969929715186  0.3780347436188976   F   F   F
  0.7183432550147799  0.6988469520639526  0.3834605945055571   F   F   F
  0.8410623824638179  0.5953407623192675  0.4195961671555111   F   F   F
  0.0046740168820492  0.6567123154799432  0.3577783004107076   F   F   F
  0.8282681675612906  0.7652708396621435  0.4679422553080954   F   F   F
  0.8754970612368074  0.6516447093733350  0.7221837546066671   T   T   T
  0.5198997821957718  0.0384789278118589  0.4217030704774842   F   F   F
  0.2230040403957574  0.0330690014440904  0.3932050219465495   F   F   F
  0.2162831589827761  0.2907656242532326  0.3192303272980936   F   F   F
  0.1574105185961656  0.3827203962574259  0.2789829167401123   F   F   F
  0.3414563448037669  0.2084998717994608  0.3307727584112428   F   F   F
  0.2226253298992518  0.0986730922734509  0.3227384335196248   F   F   F
  0.5112278077940209  0.8794561082562332  0.5468028497764377   T   T   T
  0.3763235418776704  0.2945498343559341  0.6475859922598665   T   T   T
  0.2438392934347506  0.1462756480533273  0.5985352560414100   T   T   T
  0.3152904395436451  0.5400506308239912  0.4424346656312608   F   F   F
  0.4088656519639997  0.4916490249373524  0.4056905975982730   F   F   F
  0.3984089714586787  0.8460277739003956  0.3887867966224334   F   F   F
  0.2441118253534071  0.7083442450280870  0.2943268807443218   F   F   F
  0.3116508497912420  0.4713898797871323  0.3692576443915385   F   F   F
  0.4053837631189481  0.6371938197145255  0.3388198885480591   F   F   F
  0.1392670888225922  0.5408878128298724  0.3519294596467617   F   F   F
  0.5931788133663503  0.7509012946747688  0.3523979868156601   F   F   F
  0.4689162983804636  0.9143416354883271  0.4438283837725479   F   F   F
  0.1216463331175059  0.3761622392441481  0.6117950731397571   T   T   T
  0.0711742957086673  0.7185674715113696  0.6455601847314661   T   T   T
  0.2427368188719476  0.4398621345300870  0.6824005775103539   T   T   T
  0.2470064541993970  0.8681656953237997  0.6700820691961505   T   T   T
  0.5915743293067548  0.5509868047176876  0.7718214163783276   T   T   T
  0.4708281882343338  0.5759331364289872  0.8132922392021527   T   T   T
  0.5652478005177043  0.4273426744306222  0.8164435952337086   T   T   T
  0.4922824977105280  0.4438156784852428  0.7996293669683879   T   T   T
  0.5446869231683191  0.4272618234435715  0.7530576988594974   T   T   T
  0.5723432225474262  0.6821848118721725  0.8087208313945033   T   T   T
  0.5248712648203333  0.6916389072163490  0.7575296553948797   T   T   T
  0.4993406698156146  0.7056499107961500  0.8189468180702257   T   T   T
  0.3688512020290489  0.7012692636709232  0.4390000177989322   F   F   F
  0.3467251182155664  0.5569480341977879  0.4203881275781143   F   F   F
  0.8611511126329421  0.6189979638338071  0.6965265625609612   T   T   T
  0.3486347990364773  0.0114375357782639  0.5308099236759720   T   T   T
  0.0329216906172532  0.9850045602446180  0.5284336645122523   T   T   T
  0.6362649505335867  0.1317827118104091  0.4893766723794641   F   F   F
  0.0685556147153363  0.1051795877249617  0.3951107345583225   F   F   F
  0.4518090106664943  0.1824764910796617  0.4205972814427668   F   F   F
  0.8057936175206706  0.2665643459422569  0.4831666074103040   F   F   F
  0.9734867241645735  0.2343666575678431  0.5987620298503901   T   T   T
  0.2746747611186322  0.3520870372605316  0.4485122250900346   F   F   F
  0.5562636344308913  0.8280054574285174  0.4417510122690658   F   F   F
  0.3915889025581770  0.0257221847391393  0.6198919876494623   T   T   T
  0.1774267080935203  0.4028826155794221  0.4052731245300478   F   F   F
  0.8667054996933983  0.7374444942765774  0.6373541844413623   T   T   T
  0.8656054784621432  0.0200910983279456  0.4670384592975196   F   F   F
  0.3009566048241439  0.8138510011246893  0.4579252567998537   F   F   F
  0.4215204138564985  0.3141663832652810  0.3795963030273342   F   F   F
  0.8109329559857454  0.5177319770116448  0.5201997180284810   T   T   T
  0.9836362382575867  0.1251887129198436  0.5209540297383596   T   T   T
  0.5162601758987350  0.5017458149671067  0.6241860776262532   T   T   T
  0.0344458743527980  0.9728619279023647  0.4294052572495062   F   F   F
  0.9629460101791665  0.3561094741943620  0.3512576249606170   F   F   F
  0.0695361586833982  0.3890199317806449  0.3763717815531962   F   F   F
  0.2082051257655451  0.7815584604460639  0.3953601014000157   F   F   F
  0.0388107311480326  0.4720160818300911  0.4991087535393461   F   F   F
  0.2391024459505044  0.3391267635908806  0.5878344834020566   T   T   T
  0.3972316309130972  0.2485791600218693  0.6447283181663530   T   T   T
  0.4620252034093412  0.6171228004259248  0.5831183647187562   T   T   T
  0.9098147023131021  0.8018329180105555  0.5574142495623727   T   T   T
  0.8690367395644572  0.1609575086092150  0.4422783307318099   F   F   F
  0.5724862628102159  0.7202460191166011  0.3761317316733468   F   F   F
  0.1423360273303373  0.2120396650636849  0.3759722435750490   F   F   F
  0.3503413939417823  0.8193533948423376  0.6066869068708255   T   T   T
  0.9109055180297290  0.8979617376758284  0.4831796236075121   F   F   F
  0.0612474787255550  0.5897858720835742  0.4422534820284341   F   F   F
  0.7082484959429536  0.6080807180970709  0.4199576800001736   F   F   F
  0.0753967255111263  0.8697209711446874  0.4829941554854784   F   F   F
  0.7003742394319019  0.8804698812617175  0.4326352913293690   F   F   F
  0.7302293705020408  0.1018420925060026  0.5430084130433414   T   T   T
  0.9190585056048526  0.3544440921713912  0.6322203917253105   T   T   T
  0.7352451670204656  0.9052931850618454  0.6127844021678071   T   T   T
  0.6250314226213121  0.5803081683119942  0.4863787091564404   F   F   F
  0.5564827669730548  0.6826172066338358  0.4672494240254110   F   F   F
  0.4254042836312609  0.2996211760039339  0.5551651425441155   T   T   T
  0.9781995620681840  0.7811577998554284  0.4767956400891720   F   F   F
  0.6542766070750703  0.6472505396002738  0.6336804712456779   T   T   T
  0.3967242680486936  0.7992416967360868  0.5154974507839283   T   T   T
  0.6025995367740791  0.5705796180219238  0.3856709925442061   F   F   F
  0.7188293472150992  0.6845601274162061  0.5571370253620661   T   T   T
  0.1465800262550659  0.4173273968267972  0.6199150682250333   T   T   T
  0.0661268267677004  0.6011573141499920  0.5421005703323543   T   T   T
  0.8184989689764980  0.9375628100924626  0.5363941904173036   T   T   T
  0.8281249988959942  0.4082993089742075  0.4519033357708793   F   F   F
  0.5271135296900350  0.3524107432259836  0.5331125890158837   T   T   T
  0.7371319793776728  0.5526164535502024  0.5952191765092747   T   T   T
  0.5573434043341337  0.2253452714274573  0.3949085375269945   F   F   F
  0.8058735512249910  0.3093267367204504  0.3832928600033014   F   F   F
  0.2373556849975031  0.0061649167225255  0.5079195554207132   F   F   F
  0.6926685633470906  0.8294900642144455  0.5411013845827480   T   T   T
  0.9233349688523934  0.0030268748724196  0.5528791050575212   T   T   T
  0.5256466905887152  0.3706952858312249  0.3985559351687087   F   F   F
  0.4677949777584244  0.0442209538410434  0.5463185237517262   T   T   T
  0.8379444692524224  0.1474893040471568  0.5397461324316212   T   T   T
  0.5378127212769925  0.1693316555621465  0.4862370923690094   F   F   F
  0.3501029107497544  0.2395228986826510  0.4396363938456389   F   F   F
  0.0116697910513324  0.0153280661502038  0.3352437574830063   F   F   F
  0.4546945234033371  0.6461759094650161  0.6768912694245802   T   T   T
  0.6548746897867801  0.9783116705587176  0.3792282539811964   F   F   F
  0.0762028111815738  0.7389404236546895  0.4358810225764742   F   F   F
  0.4503326187975363  0.4577896026295257  0.5508879455363391   T   T   T
  0.7191289048610514  0.7533350175943667  0.3795829994963285   F   F   F
  0.4505133101426919  0.7587373022703991  0.6009960666805234   T   T   T
  0.7524605273401193  0.7622387416520908  0.4762954835743187   F   F   F
  0.7793729026691508  0.1736657642946525  0.6208737425858980   T   T   T
  0.9931840837814292  0.3609276396724823  0.4484029789284989   F   F   F
  0.5326338891006800  0.5577714556799181  0.5281299892205825   T   T   T
  0.8166870534501030  0.5519759007202723  0.4234422052650615   F   F   F
  0.2367662154861454  0.1984383778552149  0.6053723965685895   T   T   T
  0.2034427739508828  0.8836154823292830  0.4705336293601903   F   F   F
  0.2398516872279953  0.6119203581528995  0.5228789833587367   T   T   T
  0.0608287725477182  0.6780900674545131  0.6238115282392867   T   T   T
  0.0459835404395363  0.6552608584259545  0.3541786312221902   F   F   F
  0.8007755599725832  0.0314688046893312  0.6056549853301143   T   T   T
  0.5379003779459453  0.0806116580304277  0.4045027517534763   F   F   F
  0.6068851855539563  0.3662009883312224  0.6049419138463490   T   T   T
  0.8614555757686375  0.0569950157422738  0.3692063291070653   F   F   F
  0.0948207762165225  0.2019370016532918  0.4670823258906296   F   F   F
  0.1713029222305698  0.2567736146988557  0.5310464797832787   T   T   T
  0.6408981231186459  0.7573528864846182  0.4548155821771758   F   F   F
  0.4366972516410215  0.4626826471504657  0.3864132536704119   F   F   F
  0.5739370121813739  0.1116138741805415  0.5711615002166716   T   T   T
  0.1513472144366474  0.6463221897503928  0.3889583608347777   F   F   F
  0.2676492583114438  0.6552516976716234  0.3923062966030031   F   F   F
  0.4401679282654527  0.3751123485634551  0.4703244327181508   F   F   F
  0.2379191341244322  0.2114252956070146  0.4299011866524154   F   F   F
  0.0728129159814859  0.2023208922941828  0.5623874571487204   T   T   T
  0.8453932518122099  0.5973093450074258  0.5997010547604346   T   T   T
  0.6210888966612913  0.3328540428499025  0.4109054511829981   F   F   F
  0.6025764616084643  0.9444408320808577  0.4672234595428861   F   F   F
  0.0312948594527285  0.2482039953716892  0.3889918752683101   F   F   F
  0.6068832083258343  0.2486015247947013  0.5473216602518544   T   T   T
  0.1327091945645762  0.9912688108262273  0.4794870772378772   F   F   F
  0.0799865306409239  0.3331380225983409  0.5119343488733883   T   T   T
  0.3720515324606420  0.1577533680458447  0.5689189838379959   T   T   T
  0.0661604586390107  0.7494487657434677  0.5356746161396799   T   T   T
  0.6663978485211572  0.4682990438497043  0.4300115561107631   F   F   F
  0.7992821494366726  0.7822271609875330  0.5642059974246435   T   T   T
  0.7037480268479754  0.0101225995833758  0.4701845621740759   F   F   F
  0.5945827875456963  0.6840141154907939  0.5549062945854273   T   T   T
  0.7227497681009964  0.3465988203652586  0.4516681052539582   F   F   F
  0.9772834067215631  0.3667845365440285  0.5470768931370166   T   T   T
  0.1580236913239656  0.6829796515318993  0.5705997981183438   T   T   T
  0.6332433130452486  0.3796972455505028  0.5078007023299378   F   F   F
  0.8203276104394776  0.4500891138050414  0.6062276609963001   T   T   T
  0.9584876663240394  0.0801572106534536  0.4169530046787955   F   F   F
  0.2819167520175408  0.2481544842980719  0.5185507992838888   T   T   T
  0.2491670179877872  0.4959470554310172  0.4610556955705079   F   F   F
  0.2721627621263161  0.9028826110034314  0.5685818565886385   T   T   T
  0.2035776175532789  0.7384873357323798  0.4868887178860462   F   F   F
  0.1470329216841293  0.5289840429559618  0.4925449251270066   F   F   F
  0.2248428887569458  0.4760217869930569  0.5567695627045831   T   T   T
  0.9113264465204551  0.5056587644700841  0.4737188145108959   F   F   F
  0.8696976443528257  0.7574742768072511  0.4641535209108483   F   F   F
  0.7380296760463807  0.1457487848207037  0.4452296472671975   F   F   F
  0.2220929046952875  0.9826953560881933  0.4079468165165281   F   F   F
  0.2518823686293385  0.4561100678904018  0.6490129974857387   T   T   T
  0.6306370356648935  0.9362951424622267  0.5933643407352550   T   T   T
  0.4101327335804896  0.8419765582909520  0.4234373851432949   F   F   F
  0.9176808209654013  0.2489524599514752  0.5082451459005242   F   F   F
  0.1324565266535416  0.4964502801184096  0.3322726622007863   F   F   F
  0.1550571491199264  0.3564374214981783  0.3105604161752922   F   F   F
  0.3729146135038945  0.1838212095481282  0.3479534200993726   F   F   F
  0.0346616370980809  0.3451629297544195  0.6331689911758750   T   T   T
  0.5725987290127676  0.3097823576707270  0.3200996781806822   F   F   F
  0.2452314836033675  0.8236063695698628  0.6501289072739501   T   T   T
  0.2072837671319121  0.7013192159894288  0.3103690611938177   F   F   F
  0.2752838800138733  0.4451054653358781  0.3673758273212613   F   F   F
  0.3652602807215004  0.6505007984680589  0.3422207943191111   F   F   F
  0.2262903184563925  0.1090949903318688  0.3581188824802055   F   F   F
  0.2411128032654233  0.2489923939141434  0.3293429668079639   F   F   F
  0.5011823944061149  0.9452157881634733  0.4548416832162587   F   F   F
  0.5501741282289443  0.8803947187520906  0.5343059103706235   T   T   T
  0.5457365417324596  0.7037692130103597  0.6376869897655066   T   T   T
  0.4780544065493236  0.1754173114889787  0.5965680228285000   T   T   T
  0.2621575635192009  0.7477595957599090  0.5686779883151120   T   T   T
  0.4424900822051555  0.9008410919169400  0.5811767351999487   T   T   T
  0.7658586445198658  0.6704973455123125  0.6492561882664756   T   T   T
  0.8450441163485306  0.8847948066648865  0.6226387259379502   T   T   T
  0.6402002898688742  0.7925903741828332  0.6204140993704071   T   T   T
  0.0075845486383139  0.0862021440285300  0.6029246188756798   T   T   T
  0.2841066559310452  0.0549394911151571  0.5938381801726453   T   T   T
  0.5031817509438302  0.0251032866935459  0.6285828383868172   T   T   T
  0.4372401241941052  0.4835129662886842  0.7161410284295875   T   T   T
  0.0831347474928563  0.6593344670155901  0.4064130837160320   F   F   F
  0.4088938755129564  0.8194665812512573  0.5746479422828363   T   T   T
  0.8416732872022052  0.4943672814135596  0.4678389696388976   F   F   F
  0.0169989619176221  0.0433962051334333  0.3936113541928137   F   F   F
  0.0146096748804609  0.3371044399340875  0.3910814136036507   F   F   F
  0.0091376006925941  0.1676551699266199  0.5723181014305034   T   T   T
  0.6095096778668505  0.7106473840760734  0.6117125195851622   T   T   T
  0.2139189224645736  0.5290332606504512  0.5097220344118032   T   T   T
  0.9149715960422924  0.8084751036425644  0.4962545438487922   F   F   F
  0.5204880107340912  0.1633697923080177  0.4259865881079392   F   F   F
  0.4181479012577435  0.2225963143550517  0.5893339335211518   T   T   T
  0.0833619964037737  0.1920862432763215  0.4069808717903314   F   F   F
  0.7018074027695107  0.0977604207078002  0.4873230277072054   F   F   F
  0.6649688228872392  0.9509516296890084  0.4374764361266443   F   F   F
  0.6500082122438258  0.5569412232775193  0.4301508871204760   F   F   F
  0.1983701158022271  0.9653963976097657  0.4639906909803457   F   F   F
  0.2141450566388257  0.4199971514979688  0.6035713813726739   T   T   T
  0.6737503854191879  0.8666449753895236  0.5943597441386065   T   T   T
  0.2164412430005484  0.6947230833309058  0.5386491343321907   T   T   T
  0.3686985866328598  0.7880418995244867  0.4592092972079129   F   F   F
  0.7974560047822812  0.9413452585234237  0.5954938992641045   T   T   T
  0.8795415229095799  0.9651090384441514  0.5119219441833442   T   T   T
  0.5753993046028066  0.6263264747896781  0.5116302621273104   T   T   T
  0.5897173447459382  0.1684094474046099  0.5251927653808708   T   T   T
  0.8580318094462172  0.2050273985643969  0.4951759473310489   F   F   F
  0.8358220733404530  0.6568232551359057  0.6458214024939692   T   T   T
  0.1336479890302300  0.4132330698449351  0.3568722791356791   F   F   F
  0.7905647565729268  0.3328534118554529  0.4418726542293072   F   F   F
  0.3990855650505267  0.2304090101526981  0.3960031981861079   F   F   F
  0.8560479971174875  0.8030656886201853  0.5964269071873234   T   T   T
  0.2827568394537608  0.9877415902547507  0.5497181126276298   T   T   T
  0.0229842005352054  0.3833616808027998  0.5022455100715746   F   F   F
  0.5744688530728226  0.7484042471817460  0.4355643604055430   F   F   F
  0.2301504224857425  0.8055146627772984  0.4519695445397645   F   F   F
  0.5935914001897314  0.3372452259425704  0.5483895895813432   T   T   T
  0.9752561786784156  0.3251413250031526  0.6025777484450534   T   T   T
  0.8888158273040574  0.0783231651029723  0.4242001869335610   F   F   F
  0.1045792489551885  0.2482119917584761  0.5178405929007726   T   T   T
  0.0480551291337221  0.7859512596414788  0.4826301941714348   F   F   F
  0.2319352026402435  0.2589691747449264  0.5610728751607934   T   T   T
  0.5613172753313478  0.3106994359388651  0.3812261074005363   F   F   F
  0.4786043522901877  0.6838557675589507  0.6235527012751666   T   T   T
  0.2810795716400563  0.8237802794088985  0.5978520759586473   T   T   T
  0.2084102935396075  0.6963140107077379  0.3717945352858223   F   F   F
  0.7402664260885290  0.7638756289471874  0.5358319090810264   T   T   T
  0.9862153563861213  0.0433141357240320  0.5502967141872288   T   T   T
  0.7030140260719833  0.7897323193662515  0.4342603982179796   F   F   F
  0.7880859170308772  0.1122222104935176  0.5767251956478884   T   T   T
  0.4562233662493895  0.3813657612308106  0.4092878915485585   F   F   F
  0.4493302746292820  0.9896028284920627  0.5944995412774478   T   T   T
  0.5082857920401334  0.0944817863986020  0.5862102861859946   T   T   T
  0.2441566199244960  0.4233204900850822  0.4209471039025985   F   F   F
  0.6584348119560346  0.3829162770524022  0.4503479098948588   F   F   F
  0.4597338615807042  0.3707453918430242  0.5287321466911281   T   T   T
  0.3372088360897649  0.6428567079696279  0.3990830096962270   F   F   F
  0.8035419120431867  0.5296093255489969  0.5798578540086672   T   T   T
  0.0691192576290689  0.9517733219079219  0.4805055068825652   F   F   F
  0.2118170470993022  0.1973684875158739  0.3735965933534686   F   F   F
  0.0781423248729212  0.5468991612655287  0.4946876202126234   F   F   F
  0.5574796572007585  0.9052542648335731  0.4747302534090920   F   F   F
  0.7184994694402508  0.6379574961274174  0.6096647993896237   T   T   T
  0.2865515924731312  0.2630159047529190  0.4591107728955208   F   F   F
  0.0878098110865336  0.6782400650272883  0.5677504200705746   T   T   T
  0.3530692850792690  0.0721979230756350  0.5786357791075726   T   T   T
  0.4866055653370231  0.5313656819385638  0.5702821662057945   T   T   T
  0.4722068505365101  0.5426383748441299  0.6768802910936946   T   T   T

  0.00000000E+00  0.00000000E+00  0.00000000E+00
  0.00000000E+00  0.00000000E+00  0.00000000E+00
  0.00000000E+00  0.00000000E+00  0.00000000E+00
  0.00000000E+00  0.00000000E+00  0.00000000E+00
  0.00000000E+00  0.00000000E+00  0.00000000E+00
  0.00000000E+00  0.00000000E+00  0.00000000E+00
  0.00000000E+00  0.00000000E+00  0.00000000E+00
  0.00000000E+00  0.00000000E+00  0.00000000E+00
  0.00000000E+00  0.00000000E+00  0.00000000E+00
  0.00000000E+00  0.00000000E+00  0.00000000E+00
  0.00000000E+00  0.00000000E+00  0.00000000E+00
  0.00000000E+00  0.00000000E+00  0.00000000E+00
  0.00000000E+00  0.00000000E+00  0.00000000E+00
  0.00000000E+00  0.00000000E+00  0.00000000E+00
  0.00000000E+00  0.00000000E+00  0.00000000E+00
  0.00000000E+00  0.00000000E+00  0.00000000E+00
  0.00000000E+00  0.00000000E+00  0.00000000E+00
  0.00000000E+00  0.00000000E+00  0.00000000E+00
  0.00000000E+00  0.00000000E+00  0.00000000E+00
  0.00000000E+00  0.00000000E+00  0.00000000E+00
  0.00000000E+00  0.00000000E+00  0.00000000E+00
  0.00000000E+00  0.00000000E+00  0.00000000E+00
  0.00000000E+00  0.00000000E+00  0.00000000E+00
  0.00000000E+00  0.00000000E+00  0.00000000E+00
  0.00000000E+00  0.00000000E+00  0.00000000E+00
  0.00000000E+00  0.00000000E+00  0.00000000E+00
  0.00000000E+00  0.00000000E+00  0.00000000E+00
  0.00000000E+00  0.00000000E+00  0.00000000E+00
  0.00000000E+00  0.00000000E+00  0.00000000E+00
  0.00000000E+00  0.00000000E+00  0.00000000E+00
  0.00000000E+00  0.00000000E+00  0.00000000E+00
  0.00000000E+00  0.00000000E+00  0.00000000E+00
  0.00000000E+00  0.00000000E+00  0.00000000E+00
  0.00000000E+00  0.00000000E+00  0.00000000E+00
  0.00000000E+00  0.00000000E+00  0.00000000E+00
  0.00000000E+00  0.00000000E+00  0.00000000E+00
  0.00000000E+00  0.00000000E+00  0.00000000E+00
  0.00000000E+00  0.00000000E+00  0.00000000E+00
  0.00000000E+00  0.00000000E+00  0.00000000E+00
  0.00000000E+00  0.00000000E+00  0.00000000E+00
  0.00000000E+00  0.00000000E+00  0.00000000E+00
  0.00000000E+00  0.00000000E+00  0.00000000E+00
  0.00000000E+00  0.00000000E+00  0.00000000E+00
  0.00000000E+00  0.00000000E+00  0.00000000E+00
  0.00000000E+00  0.00000000E+00  0.00000000E+00
  0.00000000E+00  0.00000000E+00  0.00000000E+00
  0.00000000E+00  0.00000000E+00  0.00000000E+00
  0.00000000E+00  0.00000000E+00  0.00000000E+00
  0.00000000E+00  0.00000000E+00  0.00000000E+00
  0.00000000E+00  0.00000000E+00  0.00000000E+00
  0.00000000E+00  0.00000000E+00  0.00000000E+00
  0.00000000E+00  0.00000000E+00  0.00000000E+00
  0.00000000E+00  0.00000000E+00  0.00000000E+00
  0.00000000E+00  0.00000000E+00  0.00000000E+00
  0.00000000E+00  0.00000000E+00  0.00000000E+00
  0.00000000E+00  0.00000000E+00  0.00000000E+00
  0.00000000E+00  0.00000000E+00  0.00000000E+00
  0.00000000E+00  0.00000000E+00  0.00000000E+00
  0.00000000E+00  0.00000000E+00  0.00000000E+00
  0.00000000E+00  0.00000000E+00  0.00000000E+00
  0.00000000E+00  0.00000000E+00  0.00000000E+00
  0.00000000E+00  0.00000000E+00  0.00000000E+00
  0.00000000E+00  0.00000000E+00  0.00000000E+00
  0.00000000E+00  0.00000000E+00  0.00000000E+00
  0.00000000E+00  0.00000000E+00  0.00000000E+00
  0.00000000E+00  0.00000000E+00  0.00000000E+00
  0.00000000E+00  0.00000000E+00  0.00000000E+00
  0.00000000E+00  0.00000000E+00  0.00000000E+00
  0.00000000E+00  0.00000000E+00  0.00000000E+00
  0.00000000E+00  0.00000000E+00  0.00000000E+00
  0.00000000E+00  0.00000000E+00  0.00000000E+00
  0.00000000E+00  0.00000000E+00  0.00000000E+00
  0.00000000E+00  0.00000000E+00  0.00000000E+00
  0.00000000E+00  0.00000000E+00  0.00000000E+00
  0.00000000E+00  0.00000000E+00  0.00000000E+00
  0.00000000E+00  0.00000000E+00  0.00000000E+00
  0.00000000E+00  0.00000000E+00  0.00000000E+00
  0.00000000E+00  0.00000000E+00  0.00000000E+00
  0.00000000E+00  0.00000000E+00  0.00000000E+00
  0.00000000E+00  0.00000000E+00  0.00000000E+00
  0.00000000E+00  0.00000000E+00  0.00000000E+00
  0.00000000E+00  0.00000000E+00  0.00000000E+00
  0.00000000E+00  0.00000000E+00  0.00000000E+00
  0.00000000E+00  0.00000000E+00  0.00000000E+00
  0.00000000E+00  0.00000000E+00  0.00000000E+00
  0.00000000E+00  0.00000000E+00  0.00000000E+00
  0.00000000E+00  0.00000000E+00  0.00000000E+00
  0.00000000E+00  0.00000000E+00  0.00000000E+00
  0.00000000E+00  0.00000000E+00  0.00000000E+00
  0.00000000E+00  0.00000000E+00  0.00000000E+00
  0.00000000E+00  0.00000000E+00  0.00000000E+00
  0.00000000E+00  0.00000000E+00  0.00000000E+00
  0.00000000E+00  0.00000000E+00  0.00000000E+00
  0.00000000E+00  0.00000000E+00  0.00000000E+00
  0.00000000E+00  0.00000000E+00  0.00000000E+00
  0.00000000E+00  0.00000000E+00  0.00000000E+00
  0.00000000E+00  0.00000000E+00  0.00000000E+00
  0.00000000E+00  0.00000000E+00  0.00000000E+00
  0.00000000E+00  0.00000000E+00  0.00000000E+00
  0.00000000E+00  0.00000000E+00  0.00000000E+00
  0.00000000E+00  0.00000000E+00  0.00000000E+00
  0.00000000E+00  0.00000000E+00  0.00000000E+00
  0.00000000E+00  0.00000000E+00  0.00000000E+00
  0.00000000E+00  0.00000000E+00  0.00000000E+00
  0.00000000E+00  0.00000000E+00  0.00000000E+00
  0.00000000E+00  0.00000000E+00  0.00000000E+00
  0.00000000E+00  0.00000000E+00  0.00000000E+00
  0.00000000E+00  0.00000000E+00  0.00000000E+00
  0.00000000E+00  0.00000000E+00  0.00000000E+00
  0.00000000E+00  0.00000000E+00  0.00000000E+00
  0.00000000E+00  0.00000000E+00  0.00000000E+00
  0.00000000E+00  0.00000000E+00  0.00000000E+00
  0.00000000E+00  0.00000000E+00  0.00000000E+00
  0.00000000E+00  0.00000000E+00  0.00000000E+00
  0.00000000E+00  0.00000000E+00  0.00000000E+00
  0.00000000E+00  0.00000000E+00  0.00000000E+00
  0.00000000E+00  0.00000000E+00  0.00000000E+00
  0.00000000E+00  0.00000000E+00  0.00000000E+00
  0.00000000E+00  0.00000000E+00  0.00000000E+00
  0.00000000E+00  0.00000000E+00  0.00000000E+00
  0.00000000E+00  0.00000000E+00  0.00000000E+00
  0.00000000E+00  0.00000000E+00  0.00000000E+00
  0.00000000E+00  0.00000000E+00  0.00000000E+00
  0.00000000E+00  0.00000000E+00  0.00000000E+00
  0.00000000E+00  0.00000000E+00  0.00000000E+00
  0.00000000E+00  0.00000000E+00  0.00000000E+00
  0.00000000E+00  0.00000000E+00  0.00000000E+00
  0.00000000E+00  0.00000000E+00  0.00000000E+00
  0.00000000E+00  0.00000000E+00  0.00000000E+00
  0.00000000E+00  0.00000000E+00  0.00000000E+00
  0.00000000E+00  0.00000000E+00  0.00000000E+00
  0.00000000E+00  0.00000000E+00  0.00000000E+00
  0.00000000E+00  0.00000000E+00  0.00000000E+00
  0.00000000E+00  0.00000000E+00  0.00000000E+00
  0.00000000E+00  0.00000000E+00  0.00000000E+00
  0.00000000E+00  0.00000000E+00  0.00000000E+00
  0.00000000E+00  0.00000000E+00  0.00000000E+00
  0.00000000E+00  0.00000000E+00  0.00000000E+00
  0.00000000E+00  0.00000000E+00  0.00000000E+00
  0.00000000E+00  0.00000000E+00  0.00000000E+00
  0.00000000E+00  0.00000000E+00  0.00000000E+00
  0.00000000E+00  0.00000000E+00  0.00000000E+00
  0.00000000E+00  0.00000000E+00  0.00000000E+00
  0.00000000E+00  0.00000000E+00  0.00000000E+00
  0.00000000E+00  0.00000000E+00  0.00000000E+00
  0.00000000E+00  0.00000000E+00  0.00000000E+00
  0.00000000E+00  0.00000000E+00  0.00000000E+00
  0.00000000E+00  0.00000000E+00  0.00000000E+00
  0.00000000E+00  0.00000000E+00  0.00000000E+00
  0.00000000E+00  0.00000000E+00  0.00000000E+00
  0.00000000E+00  0.00000000E+00  0.00000000E+00
  0.00000000E+00  0.00000000E+00  0.00000000E+00
  0.00000000E+00  0.00000000E+00  0.00000000E+00
  0.00000000E+00  0.00000000E+00  0.00000000E+00
  0.00000000E+00  0.00000000E+00  0.00000000E+00
  0.00000000E+00  0.00000000E+00  0.00000000E+00
  0.00000000E+00  0.00000000E+00  0.00000000E+00
  0.00000000E+00  0.00000000E+00  0.00000000E+00
  0.00000000E+00  0.00000000E+00  0.00000000E+00
  0.00000000E+00  0.00000000E+00  0.00000000E+00
  0.00000000E+00  0.00000000E+00  0.00000000E+00
  0.00000000E+00  0.00000000E+00  0.00000000E+00
  0.00000000E+00  0.00000000E+00  0.00000000E+00
  0.00000000E+00  0.00000000E+00  0.00000000E+00
  0.00000000E+00  0.00000000E+00  0.00000000E+00
  0.00000000E+00  0.00000000E+00  0.00000000E+00
  0.00000000E+00  0.00000000E+00  0.00000000E+00
  0.00000000E+00  0.00000000E+00  0.00000000E+00
  0.00000000E+00  0.00000000E+00  0.00000000E+00
  0.00000000E+00  0.00000000E+00  0.00000000E+00
  0.00000000E+00  0.00000000E+00  0.00000000E+00
  0.00000000E+00  0.00000000E+00  0.00000000E+00
  0.00000000E+00  0.00000000E+00  0.00000000E+00
  0.00000000E+00  0.00000000E+00  0.00000000E+00
  0.00000000E+00  0.00000000E+00  0.00000000E+00
  0.00000000E+00  0.00000000E+00  0.00000000E+00
  0.00000000E+00  0.00000000E+00  0.00000000E+00
  0.00000000E+00  0.00000000E+00  0.00000000E+00
  0.00000000E+00  0.00000000E+00  0.00000000E+00
  0.00000000E+00  0.00000000E+00  0.00000000E+00
  0.00000000E+00  0.00000000E+00  0.00000000E+00
  0.00000000E+00  0.00000000E+00  0.00000000E+00
  0.00000000E+00  0.00000000E+00  0.00000000E+00
  0.00000000E+00  0.00000000E+00  0.00000000E+00
  0.00000000E+00  0.00000000E+00  0.00000000E+00
  0.00000000E+00  0.00000000E+00  0.00000000E+00
  0.00000000E+00  0.00000000E+00  0.00000000E+00
  0.00000000E+00  0.00000000E+00  0.00000000E+00
  0.00000000E+00  0.00000000E+00  0.00000000E+00
  0.00000000E+00  0.00000000E+00  0.00000000E+00
  0.00000000E+00  0.00000000E+00  0.00000000E+00
  0.00000000E+00  0.00000000E+00  0.00000000E+00
  0.00000000E+00  0.00000000E+00  0.00000000E+00