 C  H  O Si  W                          
   1.0000000000000000     
    23.4112945954000011    0.0000000000000000    0.0000000000000000
     0.0000000000000000   18.1212369513999967    0.0000000000000000
     0.0000000000000000    0.0000000000000000   26.8833665072999999
   C    H    O    Si   W 
     4    52   154    65     1
Selective dynamics
Direct
  0.5917035948240823  0.4367346404882753  0.7045254964509056   T   T   T
  0.4928766254770309  0.6293293023030344  0.7902452453921427   T   T   T
  0.5468766726170600  0.6101372745699010  0.7631653235112594   T   T   T
  0.5822770785821021  0.5539426552042954  0.7752334916647143   T   T   T
  0.7608407188857242  0.0772080510854138  0.6507514235089147   F   F   F
  0.9264276758305172  0.2510770272527409  0.3563349293400009   F   F   F
  0.7933396966457948  0.1796869616534877  0.3734565163880745   F   F   F
  0.9745391126846457  0.9160166649671027  0.3253027906056829   F   F   F
  0.6257326647317640  0.9358809144035689  0.3752311999972449   F   F   F
  0.8205383985802470  0.9674147280076042  0.3689926296547128   F   F   F
  0.7499930738025071  0.1135868202606858  0.4580381926778543   F   F   F
  0.9155126785690868  0.2218623225875760  0.5094631708287594   F   F   F
  0.5834928632346532  0.2766716106437030  0.3059271726651787   F   F   F
  0.8922767915328791  0.3076258470164603  0.6166510981428459   F   F   F
  0.5876230014719397  0.3300012321840242  0.6166295022820165   F   F   F
  0.5943494874772099  0.8439634448584670  0.5774692944729480   F   F   F
  0.0335663157640695  0.3099103484086569  0.6525528891694137   F   F   F
  0.9352705076293475  0.3919222901641533  0.4541014552468710   F   F   F
  0.7461383787264921  0.5027200568444741  0.4224881911837883   F   F   F
  0.7993643236988817  0.3562047782256954  0.6355569433927855   F   F   F
  0.5911020173621253  0.5410908911349210  0.3780347436188976   F   F   F
  0.7184337867332147  0.6183408502273551  0.3834605945055571   F   F   F
  0.8411529141822527  0.5148346604826699  0.4195961671555111   F   F   F
  0.0047645486004839  0.5762062136433457  0.3577783004107076   F   F   F
  0.8283586992797254  0.6847647378255459  0.4679422553080954   F   F   F
  0.8798348114418033  0.5719736903249810  0.7208105773796731   F   F   F
  0.5199903139142066  0.9579728259752613  0.4217030704774842   F   F   F
  0.2230945721141921  0.9525628996074929  0.3932050219465495   F   F   F
  0.2163736907012108  0.2102595224166350  0.3192303272980936   F   F   F
  0.1575010503146004  0.3022142944208284  0.2789829167401123   F   F   F
  0.3415468765222016  0.1279937699628633  0.3307727584112428   F   F   F
  0.2227158616176865  0.0181669904368533  0.3227384335196248   F   F   F
  0.5116132189043938  0.7983558045901304  0.5470395807486952   F   F   F
  0.3753215113202444  0.2119292770041881  0.6467559312604507   F   F   F
  0.2444899916799343  0.0655479160095567  0.5984873130546191   F   F   F
  0.3153809712620799  0.4595445289873936  0.4424346656312608   F   F   F
  0.4089561836824345  0.4111429231007548  0.4056905975982730   F   F   F
  0.3984995031771135  0.7655216720637981  0.3887867966224334   F   F   F
  0.2442023570718419  0.6278381431914895  0.2943268807443218   F   F   F
  0.3117413815096768  0.3908837779505347  0.3692576443915385   F   F   F
  0.4054742948373828  0.5566877178779279  0.3388198885480591   F   F   F
  0.1393576205410270  0.4603817109932749  0.3519294596467617   F   F   F
  0.5932693450847850  0.6703951928381713  0.3523979868156601   F   F   F
  0.4690068300988983  0.8338355336517296  0.4438283837725479   F   F   F
  0.1223642245251000  0.2972789452472142  0.6130127282863143   F   F   F
  0.0739526989124641  0.6359928114072346  0.6463559946949218   F   F   F
  0.2436742481802057  0.3601871419301474  0.6822027568337816   F   F   F
  0.2461689400773892  0.7879253626180684  0.6695496693038905   F   F   F
  0.6042610031484728  0.3943761867748066  0.7315571455361081   T   T   T
  0.6276903138795973  0.4637573526438246  0.6857763241981871   T   T   T
  0.4987141513415665  0.6823222477150139  0.8098783574210984   T   T   T
  0.4815930014531347  0.5869375713380052  0.8178274247048734   T   T   T
  0.4571497615891857  0.6365407834339862  0.7640706265202510   T   T   T
  0.5587778725959183  0.6460050661852819  0.7320902738406190   T   T   T
  0.6230068726480908  0.5464152149216162  0.7563802492647227   T   T   T
  0.5729719391886192  0.5166644643957738  0.8061540609801057   T   T   T
  0.3689417337474836  0.6207631618343257  0.4390000177989322   F   F   F
  0.3468156499340012  0.4764419323611904  0.4203881275781143   F   F   F
  0.8625687657623899  0.5392340841341579  0.6966037003058076   F   F   F
  0.3487926801563290  0.9299120023620517  0.5305876373381651   F   F   F
  0.0332015172119924  0.9044621196083753  0.5285344787467494   F   F   F
  0.6363554822520214  0.0512766099738116  0.4893766723794641   F   F   F
  0.0686461464337711  0.0246734858883642  0.3951107345583225   F   F   F
  0.4518995423849290  0.1019703892430641  0.4205972814427668   F   F   F
  0.8058841492391053  0.1860582441056593  0.4831666074103040   F   F   F
  0.9737447795871930  0.1539174736608828  0.5987258329809464   F   F   F
  0.2747652928370670  0.2715809354239340  0.4485122250900346   F   F   F
  0.5563541661493261  0.7474993555919198  0.4417510122690658   F   F   F
  0.3919422145211016  0.9440939657082836  0.6195435039992105   F   F   F
  0.1775172398119551  0.3223765137428245  0.4052731245300478   F   F   F
  0.8674660141320274  0.6577139160801337  0.6374946487311206   F   F   F
  0.8656960101805780  0.9395849964913481  0.4670384592975196   F   F   F
  0.3010471365425786  0.7333448992880918  0.4579252567998537   F   F   F
  0.4216109455749333  0.2336602814286834  0.3795963030273342   F   F   F
  0.8114704650404931  0.4375377877618831  0.5203703194566103   F   F   F
  0.9837210949324131  0.0447854262850385  0.5210860724481989   F   F   F
  0.5100327341995694  0.4278795060631850  0.6269914760735205   F   F   F
  0.0345364060712328  0.8923558260657671  0.4294052572495062   F   F   F
  0.9630365418976012  0.2756033723577644  0.3512576249606170   F   F   F
  0.0696266904018330  0.3085138299440473  0.3763717815531962   F   F   F
  0.2082956574839798  0.7010523586094664  0.3953601014000157   F   F   F
  0.0389012628664673  0.3915099799934936  0.4991087535393461   F   F   F
  0.2392978332112818  0.2583380117694318  0.5878223453709168   F   F   F
  0.3974343562813516  0.1668351670937369  0.6443831695148958   F   F   F
  0.4541572699175589  0.5356137877392300  0.5829939818688814   F   F   F
  0.9107641059275977  0.7218179830113272  0.5575794066866564   F   F   F
  0.8691272712828919  0.0804514067726174  0.4422783307318099   F   F   F
  0.5725767945286506  0.6397399172800036  0.3761317316733468   F   F   F
  0.1424265590487721  0.1315335632270873  0.3759722435750490   F   F   F
  0.3502040525439938  0.7390392059342048  0.6066735192830492   F   F   F
  0.9109960497481637  0.8174556358392309  0.4831796236075121   F   F   F
  0.0613380104439898  0.5092797702469767  0.4422534820284341   F   F   F
  0.7083390276613883  0.5275746162604733  0.4199576800001736   F   F   F
  0.0754872572295611  0.7892148693080898  0.4829941554854784   F   F   F
  0.7004647711503367  0.7999637794251200  0.4326352913293690   F   F   F
  0.7304166234572378  0.0215367360885139  0.5430044104210978   F   F   F
  0.9193448563656617  0.2738899758383653  0.6322870209358342   F   F   F
  0.7359900350819188  0.8260697216577668  0.6132831592015862   F   F   F
  0.6251219543397468  0.4998020664753966  0.4863787091564404   F   F   F
  0.5565732986914895  0.6021111047972383  0.4672494240254110   F   F   F
  0.4258215901363798  0.2193127226407370  0.5553416540086076   F   F   F
  0.9782900937866188  0.7006516980188309  0.4767956400891720   F   F   F
  0.6556935209965076  0.5686371643946160  0.6334273178809227   F   F   F
  0.3972964743366063  0.7180295620070893  0.5157046386466106   F   F   F
  0.6026900684925138  0.4900735161853262  0.3856709925442061   F   F   F
  0.7212778783369203  0.6045264620607895  0.5575452311163716   F   F   F
  0.1480291846981814  0.3375305945454841  0.6215542343592517   F   F   F
  0.0662410978488310  0.5206209644716822  0.5421655490330082   F   F   F
  0.8187533096523083  0.8575833778201343  0.5365013900692617   F   F   F
  0.8282155306144290  0.3277932071376100  0.4519033357708793   F   F   F
  0.5273371872208514  0.2719022102914224  0.5328876559915940   F   F   F
  0.7378396769276634  0.4722391927834906  0.5957564454189637   F   F   F
  0.5574339360525684  0.1448391695908597  0.3949085375269945   F   F   F
  0.8059640829434258  0.2288206348838528  0.3832928600033014   F   F   F
  0.2374462167159379  0.9256588148859279  0.5079195554207132   F   F   F
  0.6938829673277311  0.7499406153380264  0.5412173765953554   F   F   F
  0.9236873707620674  0.9223479671934385  0.5528977816815654   F   F   F
  0.5257372223071499  0.2901891839946273  0.3985559351687087   F   F   F
  0.4684766314533348  0.9618789849726213  0.5463062017211229   F   F   F
  0.8381100544933489  0.0672375967218315  0.5398224546101744   F   F   F
  0.5379032529954273  0.0888255537255489  0.4862370923690094   F   F   F
  0.3501934424681892  0.1590167968460534  0.4396363938456389   F   F   F
  0.0117603227697671  0.9348219643136062  0.3352437574830063   F   F   F
  0.4699232411240928  0.5582114393744604  0.6774379426057919   F   F   F
  0.6549652215052149  0.8978055687221200  0.3792282539811964   F   F   F
  0.0762933429000086  0.6584343218180919  0.4358810225764742   F   F   F
  0.4514292359192567  0.3782518974778597  0.5509505530979553   F   F   F
  0.7192194365794862  0.6728289157577692  0.3795829994963285   F   F   F
  0.4493187985124507  0.6756429978246743  0.6033845042723414   F   F   F
  0.7525510590585540  0.6817326398154933  0.4762954835743187   F   F   F
  0.7794059689219779  0.0940487227701254  0.6205843128951400   F   F   F
  0.9932746154998640  0.2804215378358847  0.4484029789284989   F   F   F
  0.5338783180568996  0.4828207082959750  0.5331889774691803   F   F   F
  0.8167775851685377  0.4714697988836747  0.4234422052650615   F   F   F
  0.2367102266255543  0.1175539995812187  0.6052771332310840   F   F   F
  0.2035333056693176  0.8031093804926854  0.4705336293601903   F   F   F
  0.2397575824472682  0.5313574849876446  0.5229074833232872   F   F   F
  0.0610593453347832  0.5976549422235919  0.6238950633202052   F   F   F
  0.0460740721579711  0.5747547565893569  0.3541786312221902   F   F   F
  0.8013567861659538  0.9517577737573575  0.6058405993852389   F   F   F
  0.5379909096643800  0.0001055561938301  0.4045027517534763   F   F   F
  0.6069698464775684  0.2856893783660155  0.6050807025248730   F   F   F
  0.8615461074870723  0.9764889139056763  0.3692063291070653   F   F   F
  0.0949113079349573  0.1214308998166942  0.4670823258906296   F   F   F
  0.1714922969128381  0.1762971144692074  0.5309711031138704   F   F   F
  0.6409886548370807  0.6768467846480206  0.4548155821771758   F   F   F
  0.4367877833594562  0.3821765453138681  0.3864132536704119   F   F   F
  0.5742070534602846  0.0305712634022584  0.5710111594764413   F   F   F
  0.1514377461550822  0.5658160879137952  0.3889583608347777   F   F   F
  0.2677397900298786  0.5747455958350258  0.3923062966030031   F   F   F
  0.4402584599838875  0.2946062467268575  0.4703244327181508   F   F   F
  0.2380096658428670  0.1309191937704171  0.4299011866524154   F   F   F
  0.0730322752912471  0.1218905099102230  0.5624241626663817   F   F   F
  0.8459960440322547  0.5176875824679499  0.5996073838855693   F   F   F
  0.6211794283797261  0.2523479410133049  0.4109054511829981   F   F   F
  0.6026669933268991  0.8639347302442602  0.4672234595428861   F   F   F
  0.0313853911711632  0.1676978935350917  0.3889918752683101   F   F   F
  0.6069902169339088  0.1680826832396107  0.5475009000221291   F   F   F
  0.1327997262830110  0.9107627089896297  0.4794870772378772   F   F   F
  0.0801053325564851  0.2526807472132191  0.5120000320958411   F   F   F
  0.3727027234960048  0.0763979754587254  0.5682863791558361   F   F   F
  0.0661021584864940  0.6689169300677165  0.5357229811530360   F   F   F
  0.6664883802395920  0.3877929420131068  0.4300115561107631   F   F   F
  0.8003105517540661  0.7028996137095973  0.5641918334265981   F   F   F
  0.7038385585664102  0.9296164977467782  0.4701845621740759   F   F   F
  0.6015894244110100  0.6074996336381631  0.5516972457848794   F   F   F
  0.7228402998194312  0.2660927185286610  0.4516681052539582   F   F   F
  0.9773669277342591  0.2864146663122682  0.5471004247570690   F   F   F
  0.1581097764198276  0.6025319525678725  0.5706956115499082   F   F   F
  0.6333338447636834  0.2991911437139052  0.5078007023299378   F   F   F
  0.8213892643331846  0.3703139481556974  0.6065116255928373   F   F   F
  0.9585781980424741  0.9996511088168560  0.4169530046787955   F   F   F
  0.2821068308447465  0.1673816798374403  0.5185863867199743   F   F   F
  0.2492575497062219  0.4154409535944197  0.4610556955705079   F   F   F
  0.2714767134532750  0.8221391939256719  0.5686385006147390   F   F   F
  0.2036681492717136  0.6579812338957822  0.4868887178860462   F   F   F
  0.1471234534025641  0.4484779411193642  0.4925449251270066   F   F   F
  0.2250075989847886  0.3953865352262227  0.5567600832849990   F   F   F
  0.9114169782388899  0.4251526626334865  0.4737188145108959   F   F   F
  0.8697881760712605  0.6769681749706535  0.4641535209108483   F   F   F
  0.7381202077648155  0.0652426829841062  0.4452296472671975   F   F   F
  0.2221834364137223  0.9021892542515957  0.4079468165165281   F   F   F
  0.2541699299949798  0.3746056242335527  0.6487212207693318   F   F   F
  0.6312925927166617  0.8566252751289127  0.5929388323077589   F   F   F
  0.4102232652989244  0.7614704564543544  0.4234373851432949   F   F   F
  0.9177713526838360  0.1684463581148776  0.5082451459005242   F   F   F
  0.1325470583719763  0.4159441782818121  0.3322726622007863   F   F   F
  0.1551476808383612  0.2759313196615807  0.3105604161752922   F   F   F
  0.3730051452223293  0.1033151077115306  0.3479534200993726   F   F   F
  0.0350549075331230  0.2649262712583464  0.6329839156090884   F   F   F
  0.5726892607312024  0.2292762558341295  0.3200996781806822   F   F   F
  0.2452541927147038  0.7426929577012515  0.6502444527341140   F   F   F
  0.2073742988503469  0.6208131141528312  0.3103690611938177   F   F   F
  0.2753744117323080  0.3645993634992806  0.3673758273212613   F   F   F
  0.3653508124399352  0.5699946966314613  0.3422207943191111   F   F   F
  0.2263808501748272  0.0285888884952712  0.3581188824802055   F   F   F
  0.2412033349838580  0.1684862920775458  0.3293429668079639   F   F   F
  0.5012729261245497  0.8647096863268757  0.4548416832162587   F   F   F
  0.5504795662460822  0.8000325695563433  0.5343474194421631   F   F   F
  0.5473461312823886  0.6235750558215472  0.6315153368146440   F   F   F
  0.4783436434614927  0.0939658553476690  0.5961035147884246   F   F   F
  0.2622229088930723  0.6670309234518470  0.5687370261704530   F   F   F
  0.4434203511259014  0.8183255559015521  0.5820538571100542   F   F   F
  0.7669090130754554  0.5897852799725598  0.6500467228590239   F   F   F
  0.8457144108609924  0.8052129523834139  0.6227290565873318   F   F   F
  0.6421648930190642  0.7135672896302907  0.6208852162532494   F   F   F
  0.0079069210297433  0.0056327322863936  0.6030090249210076   F   F   F
  0.2846238343475065  0.9741820122668301  0.5936985505720926   F   F   F
  0.5035350373672429  0.9438011486650808  0.6286971881390215   F   F   F
  0.4775664251201377  0.4075317087782224  0.7343611456869468   T   T   T
  0.0832252792112911  0.5788283651789925  0.4064130837160320   F   F   F
  0.4094069153238351  0.7366937593917768  0.5753969477452756   F   F   F
  0.8417638189206400  0.4138611795769620  0.4678389696388976   F   F   F
  0.0170894936360568  0.9628901032968358  0.3936113541928137   F   F   F
  0.0147002065988957  0.2565983380974899  0.3910814136036507   F   F   F
  0.0094058509879105  0.0871334064133933  0.5723787081473120   F   F   F
  0.6119848885707384  0.6321617737234391  0.6092995542871051   F   F   F
  0.2140128343756871  0.4484688051573826  0.5096990468829787   F   F   F
  0.9150621277607272  0.7279690018059668  0.4962545438487922   F   F   F
  0.5205785424525260  0.0828636904714202  0.4259865881079392   F   F   F
  0.4186250529177187  0.1415332096227857  0.5888412306759960   F   F   F
  0.0834525281222085  0.1115801414397239  0.4069808717903314   F   F   F
  0.7018979344879455  0.0172543188712027  0.4873230277072054   F   F   F
  0.6650593546056740  0.8704455278524108  0.4374764361266443   F   F   F
  0.6500987439622605  0.4764351214409217  0.4301508871204760   F   F   F
  0.1984606475206618  0.8848902957731681  0.4639906909803457   F   F   F
  0.2151052300409901  0.3394485462112087  0.6037055601163459   F   F   F
  0.6748437624644126  0.7874972065671884  0.5943200980126733   F   F   F
  0.2165148969241386  0.6142238467589820  0.5386423785967338   F   F   F
  0.3687891183512946  0.7075357976878891  0.4592092972079129   F   F   F
  0.7981294324829165  0.8617442896612815  0.5956508403021132   F   F   F
  0.8798018519231476  0.8847158065129861  0.5119050623732235   F   F   F
  0.5769011377210802  0.5475374395198713  0.5121512981410277   F   F   F
  0.5897954004780317  0.0879369452087033  0.5252408931765089   F   F   F
  0.8581223411646519  0.1245212967277993  0.4951759473310489   F   F   F
  0.8368792885475358  0.5769273181835715  0.6459578679824887   F   F   F
  0.1337385207486648  0.3327269680083376  0.3568722791356791   F   F   F
  0.7906552882913616  0.2523473100188554  0.4418726542293072   F   F   F
  0.3991760967689615  0.1499029083161005  0.3960031981861079   F   F   F
  0.8569483061763350  0.7234718293385498  0.5965546263535657   F   F   F
  0.2828340335356145  0.9068225460447792  0.5496766287939963   F   F   F
  0.0230747322536402  0.3028555789662022  0.5022455100715746   F   F   F
  0.5745593847912573  0.6678981453451485  0.4355643604055430   F   F   F
  0.2302409542041772  0.7250085609407009  0.4519695445397645   F   F   F
  0.5936538590930098  0.2569091287790854  0.5485158995773389   F   F   F
  0.9755207890239816  0.2446662279335499  0.6025226636060665   F   F   F
  0.8889063590224922  0.9978170632663748  0.4242001869335610   F   F   F
  0.1047587747845427  0.1677264091615811  0.5178220460423333   F   F   F
  0.0481456608521569  0.7054451578048813  0.4826301941714348   F   F   F
  0.2320899871160123  0.1781904968963488  0.5610246670349284   F   F   F
  0.5614078070497825  0.2301933341022675  0.3812261074005363   F   F   F
  0.4790725353639758  0.5987708498159847  0.6231681176387198   F   F   F
  0.2810814432527167  0.7431167528776328  0.5978561792213739   F   F   F
  0.2085008252580423  0.6158079088711403  0.3717945352858223   F   F   F
  0.7413226850413537  0.6842024892875855  0.5358902916759334   F   F   F
  0.9865001613976290  0.9627993675717477  0.5503482232313672   F   F   F
  0.7031045577904180  0.7092262175296540  0.4342603982179796   F   F   F
  0.7882026992292950  0.0322143939002473  0.5767102938569835   F   F   F
  0.4563138979678243  0.3008596593942130  0.4092878915485585   F   F   F
  0.4498680627433416  0.9074757384702608  0.5945938369214474   F   F   F
  0.5085956905810178  0.0128976784247357  0.5860619378880827   F   F   F
  0.2442471516429308  0.3428143882484846  0.4209471039025985   F   F   F
  0.6585253436744694  0.3024101752158046  0.4503479098948588   F   F   F
  0.4600589923584550  0.2910995867833392  0.5288815122795469   F   F   F
  0.3372993678081997  0.5623506061330303  0.3990830096962270   F   F   F
  0.8042973613348607  0.4496134132688923  0.5799743227450236   F   F   F
  0.0692097893475037  0.8712672200713243  0.4805055068825652   F   F   F
  0.2119075788177369  0.1168623856792763  0.3735965933534686   F   F   F
  0.0782328565913559  0.4663930594289312  0.4946876202126234   F   F   F
  0.5575701889191933  0.8247481629969755  0.4747302534090920   F   F   F
  0.7199569902963248  0.5580074207803136  0.6098385506705029   F   F   F
  0.2866421241915660  0.1825098029163215  0.4591107728955208   F   F   F
  0.0879276183112196  0.5977585390023208  0.5677506602381470   F   F   F
  0.3536606335290031  0.9908616380242847  0.5782494751315355   F   F   F
  0.4849697388122962  0.4534196768578127  0.5726161963048213   F   F   F
  0.5134439566485157  0.4657682555678804  0.6945070892772798   T   T   T

  0.00000000E+00  0.00000000E+00  0.00000000E+00
  0.00000000E+00  0.00000000E+00  0.00000000E+00
  0.00000000E+00  0.00000000E+00  0.00000000E+00
  0.00000000E+00  0.00000000E+00  0.00000000E+00
  0.00000000E+00  0.00000000E+00  0.00000000E+00
  0.00000000E+00  0.00000000E+00  0.00000000E+00
  0.00000000E+00  0.00000000E+00  0.00000000E+00
  0.00000000E+00  0.00000000E+00  0.00000000E+00
  0.00000000E+00  0.00000000E+00  0.00000000E+00
  0.00000000E+00  0.00000000E+00  0.00000000E+00
  0.00000000E+00  0.00000000E+00  0.00000000E+00
  0.00000000E+00  0.00000000E+00  0.00000000E+00
  0.00000000E+00  0.00000000E+00  0.00000000E+00
  0.00000000E+00  0.00000000E+00  0.00000000E+00
  0.00000000E+00  0.00000000E+00  0.00000000E+00
  0.00000000E+00  0.00000000E+00  0.00000000E+00
  0.00000000E+00  0.00000000E+00  0.00000000E+00
  0.00000000E+00  0.00000000E+00  0.00000000E+00
  0.00000000E+00  0.00000000E+00  0.00000000E+00
  0.00000000E+00  0.00000000E+00  0.00000000E+00
  0.00000000E+00  0.00000000E+00  0.00000000E+00
  0.00000000E+00  0.00000000E+00  0.00000000E+00
  0.00000000E+00  0.00000000E+00  0.00000000E+00
  0.00000000E+00  0.00000000E+00  0.00000000E+00
  0.00000000E+00  0.00000000E+00  0.00000000E+00
  0.00000000E+00  0.00000000E+00  0.00000000E+00
  0.00000000E+00  0.00000000E+00  0.00000000E+00
  0.00000000E+00  0.00000000E+00  0.00000000E+00
  0.00000000E+00  0.00000000E+00  0.00000000E+00
  0.00000000E+00  0.00000000E+00  0.00000000E+00
  0.00000000E+00  0.00000000E+00  0.00000000E+00
  0.00000000E+00  0.00000000E+00  0.00000000E+00
  0.00000000E+00  0.00000000E+00  0.00000000E+00
  0.00000000E+00  0.00000000E+00  0.00000000E+00
  0.00000000E+00  0.00000000E+00  0.00000000E+00
  0.00000000E+00  0.00000000E+00  0.00000000E+00
  0.00000000E+00  0.00000000E+00  0.00000000E+00
  0.00000000E+00  0.00000000E+00  0.00000000E+00
  0.00000000E+00  0.00000000E+00  0.00000000E+00
  0.00000000E+00  0.00000000E+00  0.00000000E+00
  0.00000000E+00  0.00000000E+00  0.00000000E+00
  0.00000000E+00  0.00000000E+00  0.00000000E+00
  0.00000000E+00  0.00000000E+00  0.00000000E+00
  0.00000000E+00  0.00000000E+00  0.00000000E+00
  0.00000000E+00  0.00000000E+00  0.00000000E+00
  0.00000000E+00  0.00000000E+00  0.00000000E+00
  0.00000000E+00  0.00000000E+00  0.00000000E+00
  0.00000000E+00  0.00000000E+00  0.00000000E+00
  0.00000000E+00  0.00000000E+00  0.00000000E+00
  0.00000000E+00  0.00000000E+00  0.00000000E+00
  0.00000000E+00  0.00000000E+00  0.00000000E+00
  0.00000000E+00  0.00000000E+00  0.00000000E+00
  0.00000000E+00  0.00000000E+00  0.00000000E+00
  0.00000000E+00  0.00000000E+00  0.00000000E+00
  0.00000000E+00  0.00000000E+00  0.00000000E+00
  0.00000000E+00  0.00000000E+00  0.00000000E+00
  0.00000000E+00  0.00000000E+00  0.00000000E+00
  0.00000000E+00  0.00000000E+00  0.00000000E+00
  0.00000000E+00  0.00000000E+00  0.00000000E+00
  0.00000000E+00  0.00000000E+00  0.00000000E+00
  0.00000000E+00  0.00000000E+00  0.00000000E+00
  0.00000000E+00  0.00000000E+00  0.00000000E+00
  0.00000000E+00  0.00000000E+00  0.00000000E+00
  0.00000000E+00  0.00000000E+00  0.00000000E+00
  0.00000000E+00  0.00000000E+00  0.00000000E+00
  0.00000000E+00  0.00000000E+00  0.00000000E+00
  0.00000000E+00  0.00000000E+00  0.00000000E+00
  0.00000000E+00  0.00000000E+00  0.00000000E+00
  0.00000000E+00  0.00000000E+00  0.00000000E+00
  0.00000000E+00  0.00000000E+00  0.00000000E+00
  0.00000000E+00  0.00000000E+00  0.00000000E+00
  0.00000000E+00  0.00000000E+00  0.00000000E+00
  0.00000000E+00  0.00000000E+00  0.00000000E+00
  0.00000000E+00  0.00000000E+00  0.00000000E+00
  0.00000000E+00  0.00000000E+00  0.00000000E+00
  0.00000000E+00  0.00000000E+00  0.00000000E+00
  0.00000000E+00  0.00000000E+00  0.00000000E+00
  0.00000000E+00  0.00000000E+00  0.00000000E+00
  0.00000000E+00  0.00000000E+00  0.00000000E+00
  0.00000000E+00  0.00000000E+00  0.00000000E+00
  0.00000000E+00  0.00000000E+00  0.00000000E+00
  0.00000000E+00  0.00000000E+00  0.00000000E+00
  0.00000000E+00  0.00000000E+00  0.00000000E+00
  0.00000000E+00  0.00000000E+00  0.00000000E+00
  0.00000000E+00  0.00000000E+00  0.00000000E+00
  0.00000000E+00  0.00000000E+00  0.00000000E+00
  0.00000000E+00  0.00000000E+00  0.00000000E+00
  0.00000000E+00  0.00000000E+00  0.00000000E+00
  0.00000000E+00  0.00000000E+00  0.00000000E+00
  0.00000000E+00  0.00000000E+00  0.00000000E+00
  0.00000000E+00  0.00000000E+00  0.00000000E+00
  0.00000000E+00  0.00000000E+00  0.00000000E+00
  0.00000000E+00  0.00000000E+00  0.00000000E+00
  0.00000000E+00  0.00000000E+00  0.00000000E+00
  0.00000000E+00  0.00000000E+00  0.00000000E+00
  0.00000000E+00  0.00000000E+00  0.00000000E+00
  0.00000000E+00  0.00000000E+00  0.00000000E+00
  0.00000000E+00  0.00000000E+00  0.00000000E+00
  0.00000000E+00  0.00000000E+00  0.00000000E+00
  0.00000000E+00  0.00000000E+00  0.00000000E+00
  0.00000000E+00  0.00000000E+00  0.00000000E+00
  0.00000000E+00  0.00000000E+00  0.00000000E+00
  0.00000000E+00  0.00000000E+00  0.00000000E+00
  0.00000000E+00  0.00000000E+00  0.00000000E+00
  0.00000000E+00  0.00000000E+00  0.00000000E+00
  0.00000000E+00  0.00000000E+00  0.00000000E+00
  0.00000000E+00  0.00000000E+00  0.00000000E+00
  0.00000000E+00  0.00000000E+00  0.00000000E+00
  0.00000000E+00  0.00000000E+00  0.00000000E+00
  0.00000000E+00  0.00000000E+00  0.00000000E+00
  0.00000000E+00  0.00000000E+00  0.00000000E+00
  0.00000000E+00  0.00000000E+00  0.00000000E+00
  0.00000000E+00  0.00000000E+00  0.00000000E+00
  0.00000000E+00  0.00000000E+00  0.00000000E+00
  0.00000000E+00  0.00000000E+00  0.00000000E+00
  0.00000000E+00  0.00000000E+00  0.00000000E+00
  0.00000000E+00  0.00000000E+00  0.00000000E+00
  0.00000000E+00  0.00000000E+00  0.00000000E+00
  0.00000000E+00  0.00000000E+00  0.00000000E+00
  0.00000000E+00  0.00000000E+00  0.00000000E+00
  0.00000000E+00  0.00000000E+00  0.00000000E+00
  0.00000000E+00  0.00000000E+00  0.00000000E+00
  0.00000000E+00  0.00000000E+00  0.00000000E+00
  0.00000000E+00  0.00000000E+00  0.00000000E+00
  0.00000000E+00  0.00000000E+00  0.00000000E+00
  0.00000000E+00  0.00000000E+00  0.00000000E+00
  0.00000000E+00  0.00000000E+00  0.00000000E+00
  0.00000000E+00  0.00000000E+00  0.00000000E+00
  0.00000000E+00  0.00000000E+00  0.00000000E+00
  0.00000000E+00  0.00000000E+00  0.00000000E+00
  0.00000000E+00  0.00000000E+00  0.00000000E+00
  0.00000000E+00  0.00000000E+00  0.00000000E+00
  0.00000000E+00  0.00000000E+00  0.00000000E+00
  0.00000000E+00  0.00000000E+00  0.00000000E+00
  0.00000000E+00  0.00000000E+00  0.00000000E+00
  0.00000000E+00  0.00000000E+00  0.00000000E+00
  0.00000000E+00  0.00000000E+00  0.00000000E+00
  0.00000000E+00  0.00000000E+00  0.00000000E+00
  0.00000000E+00  0.00000000E+00  0.00000000E+00
  0.00000000E+00  0.00000000E+00  0.00000000E+00
  0.00000000E+00  0.00000000E+00  0.00000000E+00
  0.00000000E+00  0.00000000E+00  0.00000000E+00
  0.00000000E+00  0.00000000E+00  0.00000000E+00
  0.00000000E+00  0.00000000E+00  0.00000000E+00
  0.00000000E+00  0.00000000E+00  0.00000000E+00
  0.00000000E+00  0.00000000E+00  0.00000000E+00
  0.00000000E+00  0.00000000E+00  0.00000000E+00
  0.00000000E+00  0.00000000E+00  0.00000000E+00
  0.00000000E+00  0.00000000E+00  0.00000000E+00
  0.00000000E+00  0.00000000E+00  0.00000000E+00
  0.00000000E+00  0.00000000E+00  0.00000000E+00
  0.00000000E+00  0.00000000E+00  0.00000000E+00
  0.00000000E+00  0.00000000E+00  0.00000000E+00
  0.00000000E+00  0.00000000E+00  0.00000000E+00
  0.00000000E+00  0.00000000E+00  0.00000000E+00
  0.00000000E+00  0.00000000E+00  0.00000000E+00
  0.00000000E+00  0.00000000E+00  0.00000000E+00
  0.00000000E+00  0.00000000E+00  0.00000000E+00
  0.00000000E+00  0.00000000E+00  0.00000000E+00
  0.00000000E+00  0.00000000E+00  0.00000000E+00
  0.00000000E+00  0.00000000E+00  0.00000000E+00
  0.00000000E+00  0.00000000E+00  0.00000000E+00
  0.00000000E+00  0.00000000E+00  0.00000000E+00
  0.00000000E+00  0.00000000E+00  0.00000000E+00
  0.00000000E+00  0.00000000E+00  0.00000000E+00
  0.00000000E+00  0.00000000E+00  0.00000000E+00
  0.00000000E+00  0.00000000E+00  0.00000000E+00
  0.00000000E+00  0.00000000E+00  0.00000000E+00
  0.00000000E+00  0.00000000E+00  0.00000000E+00
  0.00000000E+00  0.00000000E+00  0.00000000E+00
  0.00000000E+00  0.00000000E+00  0.00000000E+00
  0.00000000E+00  0.00000000E+00  0.00000000E+00
  0.00000000E+00  0.00000000E+00  0.00000000E+00
  0.00000000E+00  0.00000000E+00  0.00000000E+00
  0.00000000E+00  0.00000000E+00  0.00000000E+00
  0.00000000E+00  0.00000000E+00  0.00000000E+00
  0.00000000E+00  0.00000000E+00  0.00000000E+00
  0.00000000E+00  0.00000000E+00  0.00000000E+00
  0.00000000E+00  0.00000000E+00  0.00000000E+00
  0.00000000E+00  0.00000000E+00  0.00000000E+00
  0.00000000E+00  0.00000000E+00  0.00000000E+00
  0.00000000E+00  0.00000000E+00  0.00000000E+00
  0.00000000E+00  0.00000000E+00  0.00000000E+00
  0.00000000E+00  0.00000000E+00  0.00000000E+00
  0.00000000E+00  0.00000000E+00  0.00000000E+00
  0.00000000E+00  0.00000000E+00  0.00000000E+00
  0.00000000E+00  0.00000000E+00  0.00000000E+00
  0.00000000E+00  0.00000000E+00  0.00000000E+00
  0.00000000E+00  0.00000000E+00  0.00000000E+00
  0.00000000E+00  0.00000000E+00  0.00000000E+00
  0.00000000E+00  0.00000000E+00  0.00000000E+00
  0.00000000E+00  0.00000000E+00  0.00000000E+00
  0.00000000E+00  0.00000000E+00  0.00000000E+00