 C  H  O Si  W 
 1.0000000000000000
    23.4112945954000011    0.0000000000000000    0.0000000000000000
     0.0000000000000000   18.1212369513999967    0.0000000000000000
     0.0000000000000000    0.0000000000000000   26.8833665072999999
 C   H   O   Si  W  
   4  52 154  65   1
Selective dynamics
Cartesian
 13.8525471715838062  7.9141719051725579 18.9400171348272259   T   T   T
 11.5388798782294320 11.4042254074924703 21.2444525625281209   T   T   T
 12.8030908899900542 11.0564421253625884 20.5164530976154289   T   T   T
 13.6318602228345309 10.0381261124446670 20.8408860851563560   T   T   T
 17.8122662100096818  1.3991053882745939 17.4943890233373409   F   F   F
 21.6888712401999726  4.5498263039000326  9.5794825048000920   F   F   F
 18.5731093523999746  3.2561500091999753 10.0397684046000943   F   F   F
 22.8152222617999563 16.5993550373000502  8.7452341457000404   F   F   F
 14.6492117519999887 16.9593198081999716 10.0874778744999212   F   F   F
 19.2098661759999096 17.5307515164999757  9.9197641015000588   F   F   F
 17.5583087953000678  2.0583336844999693 12.3136086081000524   F   F   F
 21.4333370238046186  4.0204197181973580 13.6960851433607971   F   F   F
 13.6603233154999089  5.0136318142000231  8.2243523073000500   F   F   F
 20.8893548272145253  5.5745608661603754 16.5776574785030739   F   F   F
 13.7570151984926881  5.9800305226606429 16.5770769090614394   F   F   F
 13.9144909439539504 15.2936615626000627 15.5243186900282719   F   F   F
  0.7858309068347729  5.6159588572042640 17.5428184849388487   F   F   F
 21.8958933804999596  7.1021166865999668 12.2077758528999212   F   F   F
 17.4680653933000443  9.1099092702999904 11.3579048886000127   F   F   F
 18.7141536711672352  6.4548711894487250 17.0859102454875931   F   F   F
 13.8384634643999611  9.8052362505000836 10.1628465652000148   F   F   F
 16.8194650285000655 11.2051010637000381 10.3087117032000393   F   F   F
 19.6924786736999344  9.3294408734000296 11.2801575466999200   F   F   F
  0.1115442509000294 10.4415693303000765  9.6182851782999332   F   F   F
 19.3929495395000089 12.4087840701000136 12.5798631537000780   F   F   F
 20.5980719659522045 10.3648707723456752 19.3778149340362020   F   F   F
 12.1736464258000137 17.3596525724999857 11.3367982008999686   F   F   F
  5.2229327504000613 17.2616180149000265 10.5706747175000295   F   F   F
  5.0655882157000081  3.8101626270000422  8.5819858889999860   F   F   F
  3.6873034880000279  5.4764968392999940  7.4999999999999991   F   F   F
  7.9960545443999704  2.3194054338000294  8.8922852950000397   F   F   F
  5.2140666473999984  0.3292083384000364  8.6762955942999476   F   F   F
 11.9775277866717023 14.4671947065034097 14.7062655432669178   F   F   F
  8.7867624695090285  3.8404206455317698 17.3869767408449079   F   F   F
  5.7238272208458953  1.1878093176795914 16.0893537868164422   F   F   F
  7.3834768279999352  8.3275152995000639 11.8941332716999124   F   F   F
  9.5741936927999891  7.4504183304000051 10.9063290237999340   F   F   F
  9.3293892649999428 13.8721996109000081 10.4518979467999813   F   F   F
  5.7170933222999532 11.3772037598999809  7.9124974079999815   F   F   F
  7.2982693201000259  7.0832975607000606  9.9268885897999795   F   F   F
  9.4926781673000455 10.0878700436000432  9.1086192438000104   F   F   F
  3.2625423085999494  8.3426860730000865  9.4610486483999399   F   F   F
 13.8892034121999259 12.1483901404999965  9.4736442360000641   F   F   F
 10.9800570667000255 15.1101312838000581 11.9316011073000059   F   F   F
  2.8647049082947227  5.3870622074870669 16.4798458481609877   F   F   F
  1.7313284203645536 11.5249764348975230 17.3762250995741141   F   F   F
  5.7047296094593261  6.5270365457637212 18.3399067442530672   F   F   F
  5.7631335763891567 14.2781821960198414 17.9997491547380335   F   F   F
 14.1465323572207939  7.1465843285358917 19.6667188644814743   T   T   T
 14.6950428529142787  8.4038568752127230 18.4359762654487724   T   T   T
 11.6755439159522663 12.3645231280556072 21.7722567088814998   T   T   T
 11.2747156321022750 10.6360348058951786 21.9859543980623648   T   T   T
 10.7024677427812556 11.5349063658369957 20.5407906902061939   T   T   T
 13.0817133887338795 11.7064108761482721 19.6810511480870467   T   T   T
 14.5853974305232494  9.9017195834447147 20.3340474598664933   T   T   T
 13.4140148632423220  9.3625991836839475 21.6721350826764727   T   T   T
  8.6374036172999702 11.2489963463000784 11.8017983751999189   F   F   F
  8.1194033509000221  8.6337171499000220 11.3014481090000363   F   F   F
 20.1938514840538339  9.7715886108662335 18.7270525856624843   F   F   F
  8.1656881878590202 16.8511557387536008 14.2639819188041752   F   F   F
  0.7772905004641183 16.3899723829887982 14.2087861038936154   F   F   F
 14.8979056623999107  0.9291955993999604 13.1560924437000093   F   F   F
  1.6070951569999823  0.4471140842000717 10.6219066880999087   F   F   F
 10.5795533143000231  1.8478295855000539 11.3070708689999098   F   F   F
 18.8667912275999932  3.3716055282000741 12.9891449910999341   F   F   F
 22.7966258956485746  2.7891750111697760 16.0957660054153529   F   F   F
  6.4326112151999260  4.9213824822999692 12.0575185301000349   F   F   F
 13.0249712830999922 13.5456129436999824 11.8757543678000754   F   F   F
  9.1758746485269107 17.1081504569866816 16.6554150852276557   F   F   F
  4.1559083969999504  5.8418611930999802 10.8951059422999101   F   F   F
 20.3085024083422354 11.9185897195213411 17.1380022882812177   F   F   F
 20.2670643243999073 17.0264423574000539 12.5555660742999322   F   F   F
  7.0479032006999160 13.2891166871000781 12.3105725114999380   F   F   F
  9.8704580514999201  4.2342133258999795 10.2048265390999386   F   F   F
 18.9975741125292110  7.9287259272244217 13.9893060174729076   F   F   F
 23.0301843531721708  0.8115673216806930 14.0085478674744994   F   F   F
 11.9405265936434155  7.7537059160189958 16.8556416482375084   F   F   F
  0.8085419767999923 16.1705913691000482 11.5438589107999157   F   F   F
 22.5459321885000179  4.9942740150999727  9.4429874702999967   F   F   F
  1.6300509607000222  5.5906522152000049 10.1181405465000278   F   F   F
  4.8764710002999863 12.7039359056999839 10.6286105082999143   F   F   F
  0.9107289250999606  7.0946451162999695 13.4177235483999073   F   F   F
  5.6022720693502075  4.6814043248274491 15.8026435517870141   F   F   F
  9.3044527972358964  3.0232595947319800 17.3231889172046039   F   F   F
 10.6324096386825868  9.7059843620595085 15.6728408861313291   F   F   F
 21.3221667907871577 13.0802347059299109 14.9896115468802762   F   F   F
 20.3473945888999168  1.4578790052000665 11.8899304633000895   F   F   F
 13.4047640152000547 11.5928786282999781 10.1116871976000020   F   F   F
  3.3343901320999376  2.3835508663000025 10.1073996205999102   F   F   F
  8.1987302426103454 13.3923045671082548 16.3094265691597009   F   F   F
 21.3275968958999371 14.8133072743000493 12.9894949103000119   F   F   F
  1.4360022323999673  9.2287793912000140 11.8892624465000090   F   F   F
 16.5831336499999544  9.5603046307999620 11.2898762290000771   F   F   F
  1.7672544171999933 14.3015496523000767 12.9845089027999592   F   F   F
 16.3987871110999741 14.4963331995000804 11.6306931007999363   F   F   F
 17.0999987491347127  0.3902722978196790 14.5977865804307267   F   F   F
 21.5230532671421599  4.9632251507802092 16.9980037216269544   F   F   F
 17.2304795305815901 14.9694051645374007 16.4871159415709627   F   F   F
 14.6349142311000016  9.0570316754000348 13.0754970996000566   F   F   F
 13.0301014596000186 10.9109980010999905 12.5612375163999488   F   F   F
  9.9690346917644366  3.9742178134295179 14.9294532214835947   F   F   F
 22.9030375854000283 12.6966754401999893 12.8178719415999129   F   F   F
 15.3506341843443863 10.3044087953670296 17.0286587423289326   F   F   F
  9.3012248024080169 13.0115838312403636 13.8638768102515986   F   F   F
 14.1097547432000461  8.8807383104000568 10.3681346438000581   F   F   F
 16.8860488948907559 10.9547672623951033 14.9886927924987159   F   F   F
  3.4655548516859231  6.1164718821056674 16.7094702864440379   F   F   F
  1.5507898560616833  9.4342958590577464 14.5752351622858214   F   F   F
 19.1680749332288940 15.5404715950606942 14.4229635009079420   F   F   F
 19.3895977756999258  5.9400183775999720 12.1486830014000038   F   F   F
 12.3456462411369685  4.9272043803002203 14.3258141632379488   F   F   F
 17.2737820407283493  8.5575583101675168 16.0159388712841917   F   F   F
 13.0502500944000452  2.6246649119999779 10.6164709512000286   F   F   F
 18.8686625790999436  4.1465129441000803 10.3042024350999810   F   F   F
  5.5589233301000149 16.7740827207000081 13.6545875645999075   F   F   F
 16.2446985628397584 13.5898515900191068 14.5497450951322822   F   F   F
 21.6247171509612919 16.7140860651544685 14.8637537060186578   F   F   F
 12.3081889911999873  5.2585869639000524 10.7145252788000924   F   F   F
 10.9676444300145892 17.4304370052609983 14.6865498460799664   F   F   F
 19.6212413891104980  1.2184284222389534 14.5122448961556998   F   F   F
 12.5930115196999264  1.6096289063999825 13.0716899635999635   F   F   F
  8.1984818470000391  2.8815810548999696 11.8189063057000006   F   F   F
  0.2753243809000080 16.9401303227000497  9.0124808017000539   F   F   F
 11.0015114351813477 10.1154817618866808 18.2118124970227058   F   F   F
 15.3335837504000008 16.2693474470999710 10.1949321416999528   F   F   F
  1.7861259262999702 11.9316443626000037 11.7179492835000616   F   F   F
 10.5685428310820040  6.8543922615129773 14.8114056463319859   F   F   F
 16.8378581084999581 12.1924922102000810 10.2044688954000708   F   F   F
 10.5191347592261106 12.2434868581351530 16.2210067731787895   F   F   F
 17.6181945417000740 12.3538387035999815 12.8044260507000978   F   F   F
 18.2469027478456738  1.7042791902940178 16.6833955322409757   F   F   F
 23.2538446375999790  5.0815851334000461 12.0545816254999547   F   F   F
 12.4987825821267506  8.7493084600741984 14.3339146989564981   F   F   F
 19.1218206653000493  8.5436159409999703 11.3835519988000051   F   F   F
  5.5416928492747797  2.1302238809960108 16.2718870111391034   F   F   F
  4.7649781789999919 14.5533353818000109 12.6495280121000508   F   F   F
  5.6130353941538580  9.6288548913611240 14.0575135235897584   F   F   F
  1.4294783214348652 10.8302468232089222 16.7723996493322431   F   F   F
  1.0786536764999786 10.4152671330999649  9.5215139521999852   F   F   F
 18.7607997969541245 17.2470281385940147 16.2870348782757119   F   F   F
 12.5950636758000307  0.0019128088000831 10.8743957286000903   F   F   F
 14.2099498864110494  5.1770449198686936 16.2666062924707653   F   F   F
 20.1699097299000023 17.6951869892999909  9.9255090622000601   F   F   F
  2.2219965905000114  2.2004781088000298 12.5567453559999347   F   F   F
  4.0148566838682918  3.1947217851445382 14.2742907697956305   F   F   F
 15.0063742307000627 12.2653009643999873 12.2269739889000402   F   F   F
 10.2257674718999834  6.9255117349000610 10.3880891216999700   F   F   F
 13.4429304873153992  0.5539891080159891 15.3507022799635493   F   F   F
  3.5453536881000334 10.2532874000000547 10.4565101703999712   F   F   F
  6.2681350993000278 10.4151011289000781 10.5465139547000728   F   F   F
 10.3070205047999135  5.3386296042999941 12.6439041021000076   F   F   F
  5.5721144036000725  2.3724177317999788 11.5571911627000699   F   F   F
  1.7097801118157501  2.2088068122101294 15.1198548975217069   F   F   F
 19.8058626133820503  9.3811393486990937 16.1194650614790120   F   F   F
 14.5426145943999430  4.5728568333000075 11.0465218440000061   F   F   F
 14.1092145237000022 15.6555659573000749 12.5605395037000598   F   F   F
  0.7347726386999679  3.0388932650000466 10.4574111511999064   F   F   F
 14.2104267851654189  3.0458661304120942 14.7186673583715937   F   F   F
  3.1090135142000550 16.5041468561000393 12.8902268328999163   F   F   F
  1.8753695391423264  4.5788876933075819 13.7642845145819397   F   F   F
  8.7254532562728127  1.3844258158947775 15.2774510119528646   F   F   F
  1.5475371057190774 12.1216021905601643 14.4020372487204114   F   F   F
 15.6033558142000608  7.0272877903000275 11.5601582653000428   F   F   F
 18.7363060949214777 12.7374104530790824 15.1673758384327719   F   F   F
 16.4777718421999246 16.8458008295999697 12.6401439110000666   F   F   F
 14.0839872403633333 11.0086448090457925 14.8314792595028475   F   F   F
 16.9226272044999675  4.8219292035000505 12.1423592131999101   F   F   F
 22.8814250729878168  5.1901880346008147 14.7079012350438578   F   F   F
  3.7015545541773567 10.9186242832721181 15.3422192894039320   F   F   F
 14.8271652169999246  5.4217136090000455 13.6513923934000658   F   F   F
 19.2297860448030455  6.7105468009378173 16.3050743217505669   F   F   F
 22.4415565871000453 18.1149146115999891 11.2091004411000306   F   F   F
  6.6044861242810109  3.0331630816576234 13.9413478998893883   F   F   F
  5.8354419262999198  7.5283039594000494 12.3947292443000965   F   F   F
  6.3556213144456626 14.8981791401601242 15.2869172221875225   F   F   F
  4.7681350422999893 11.9234338490000127 13.0892078511999728   F   F   F
  3.4443505095000329  8.1269750385000137 13.2412657434999552   F   F   F
  5.2677191860364907  7.1648930922274490 14.9675853755854842   F   F   F
 21.3374513767999225  7.7042921401000326 12.7351565119000814   F   F   F
 20.3628672255999241 12.2675007072000248 12.4780092183000697   F   F   F
 17.2803496307999502  1.1822781177000610 11.9692717873999701   F   F   F
  5.2016018840999765 16.3487852513000220 10.9669837839000888   F   F   F
  5.9504471084046697  6.7883172800633789 17.4398103390051027   F   F   F
 14.7793768639836856 15.5231095891692519 15.9401919453398868   F   F   F
  9.6038577138000498 13.7987865729000685 11.3834224176999435   F   F   F
 21.4862155089000382  3.0524563690000766 13.6633405327999533   F   F   F
  3.1030982313000175  7.5374230132000815  8.9326077583000245   F   F   F
  3.6322080618999699  5.0002168258999999  8.3489094906999988   F   F   F
  8.7325333403999110  1.8721975475000592  9.3541593199999600   F   F   F
  0.8206807672724961  4.8007917361233838 17.0167385965449434   F   F   F
 13.4073969946000204  4.1547693593000670  8.6053569674000610   F   F   F
  5.7417181564009985 13.4585150686404553 17.4807599421899376   F   F   F
  4.8549008018999906 11.2499015440999894  8.3437652246000233   F   F   F
  6.4468714771000366  6.6069914583000831  9.8762990118000236   F   F   F
  8.5533355007000544 10.3290089587000669  9.2000470400999941   F   F   F
  5.2998687741999895  0.5180660225999627  9.6274411709000614   F   F   F
  5.6468823327000504  3.0531800217999958  8.8538476833000317   F   F   F
 11.7354481462000138 15.6696091201000804 12.2276756726999256   F   F   F
 12.8874392941349836 14.4975797617679198 14.3650575190935434   F   F   F
 12.8140815251045126 11.2999513435247838 16.9772582545689836   F   F   F
 11.1986439549139227  1.7027775300961210 16.0252692643470382   F   F   F
  6.1389777697585250 12.0874254177820291 15.2895659208120609   F   F   F
 10.3810444698041895 14.8290713018781570 15.6475671676771633   F   F   F
 17.9543328329770020 10.6876388088305916 17.4754442974883375   F   F   F
 19.7992692162417931 14.5914547064762665 16.7410534629824319   F   F   F
 15.0339114892928816 12.9307219361587258 16.6914848275003642   F   F   F
  0.1851112575699097  0.1020720764454906 16.2109126241610113   F   F   F
  6.6634124347818062 17.6533830780788392 15.9606157298823472   F   F   F
 11.7884070989102412 17.1028442499633933 16.9014969308502501   F   F   F
 11.1804482673595729  7.3849786599790432 19.7420998282229618   T   T   T
  1.9484115293999553 10.4890859596000094 10.9257518829000855   F   F   F
  9.5847459040403677 13.3498021745560926 15.4686070334179995   F   F   F
 19.7067807445000440  7.4996765001000334 12.5770864872000807   F   F   F
  0.4000871699999393 17.4487597199999804 10.5815982962000845   F   F   F
  0.3441508672999903  4.6498792860000631 10.5135849760999207   F   F   F
  0.2202031483984045  1.5789651039997832 15.3874665920991625   F   F   F
 14.3273585142626256 11.4555532932596904 16.3800232306348335   F   F   F
  5.0103175127658384  8.1268094835681932 13.7024262857765819   F   F   F
 21.4227890460999362 13.1916987750000558 13.3409927832000594   F   F   F
 12.1874176174000315  1.5015925697000716 11.4519535752999726   F   F   F
  9.8005544388716963  2.5647568280666944 15.8300346188722987   F   F   F
  1.9537317205999265  2.0219701820999627 10.9410159377999499   F   F   F
 16.4323393202000609  0.3126696007000767 13.1008835612999164   F   F   F
 15.5699004741000291 15.7735496634999812 11.7608393706999959   F   F   F
 15.2196532109999989  8.6335937275999761 11.5639039518999880   F   F   F
  4.6462206847000544 16.0353067257000070 12.4736318016000087   F   F   F
  5.0358919095009522  6.1512275387016135 16.2296378351024977   F   F   F
 15.7989661289225118 14.2704234787696240 15.9773250175291270   F   F   F
  5.0688940361837229 11.1304958683199526 14.4805204801797718   F   F   F
  8.6338306932999949 12.8214238415000477 12.3450918403999772   F   F   F
 18.6852432691168993 15.6158724644679232 16.0130998502229005   F   F   F
 20.5973003409512181 16.0321447644707753 13.7617314087217242   F   F   F
 13.5060024876096705  9.9220556813023997 13.7683510551147581   F   F   F
 13.8078738716030998  1.5935262209091929 14.1202434358857047   F   F   F
 20.0897549279000103  2.2564799235000401 13.3119964777000686   F   F   F
 19.5924275649751216 10.4546366365402221 17.3655221132473407   F   F   F
  3.1309919080000070  6.0294242273999723  9.5939282762999323   F   F   F
 18.5102638775999822  4.5728453989000730 11.8790245131999104   F   F   F
  9.3452291969000552  2.7164261213000462 10.6458991149000965   F   F   F
 20.0622692489232435 13.1102044471066250 16.0373966618883692   F   F   F
  6.6215108807075493 16.4327462297493163 14.7771582723661030   F   F   F
  0.5402093544999489  5.4881177084999830 13.5020501238999735   F   F   F
 13.4511790198999126 12.1031405512000294 11.7094363382999216   F   F   F
  5.3902388067999931 13.1380519245999654 12.1504629159999400   F   F   F
 13.8982053829224981  4.6555111975834791 14.7459539634190566   F   F   F
 22.8382045757775209  4.4336546903891492 16.1978375946764857   F   F   F
 20.8104486387999650 18.0816794376000587 11.4039290978000931   F   F   F
  2.4525385379341418  3.0394100034245146 13.9207998493160172   F   F   F
  1.1271522497000623 12.7835388608000162 12.9747243974000472   F   F   F
  5.4335270610156110  3.2290322167464764 15.0822317435359761   F   F   F
 13.1432835589999399  4.1713879518999750 10.2486411673999296   F   F   F
 11.2157082579711922 10.8504684491065895 16.7528569021459361   F   F   F
  6.5804804732894926 13.4661947614505557 16.0723867846622674   F   F   F
  4.8812742435000462 11.1592010332000697  9.9950887575000422   F   F   F
 17.3553237697561293 12.3985954311179949 14.4065351188280868   F   F   F
 23.0952458968895051 17.4471154764257044 14.7952129917701516   F   F   F
 16.4605879337999212 12.8520563400000185 11.6743814448999945   F   F   F
 18.4528455925464563  0.5837646651120689 15.5039141982899249   F   F   F
 10.6828990933000316  5.4519491770000297 11.0030363954999526   F   F   F
 10.5319937459462096 16.4445828844662429 15.9846840409410156   F   F   F
 11.9068835421431292  0.2337218868575661 15.7553178722238663   F   F   F
  5.7181420211999905  6.2122207598000241 11.3164752744000499   F   F   F
 15.4169308193000330  5.4800464415999857 12.1068679175000042   F   F   F
 10.7705766013666562  5.2750845885554671 14.2181155335461433   F   F   F
  7.8966148665999425 10.1904885835000556 10.7286948165000311   F   F   F
 18.8296424685132884  8.1475511983732822 15.5916622831776177   F   F   F
  1.6202907672999860 15.7884397429000352 12.9176056502999632   F   F   F
  4.9610307546999834  2.1176909816000595 10.0435341450000166   F   F   F
  1.8315324526999137  8.4516191424000429 13.2988686007999828   F   F   F
 13.0534399504000671 14.9454568869000592 12.7623473945000239   F   F   F
 16.8551251958447992 10.1117846925996400 16.3945132679558014   F   F   F
  6.7106632128999850  3.3073033845999760 12.3424431752000618   F   F   F
  2.0584993753558147 10.8321241249837819 15.2630490839436881   F   F   F
  8.2796532783432450 17.9556385286903293 15.5452925726148941   F   F   F
 11.3537694251888492  8.2165254027676280 15.3938510732785669   F   F   F
 12.0203877273261686  8.4402969235858265 18.6856886229591694   T   T   T
