C  H  O  Si W                           
   1.0000000000000000     
    23.4112945954000011    0.0000000000000000    0.0000000000000000
     0.0000000000000000   18.1212369513999967    0.0000000000000000
     0.0000000000000000    0.0000000000000000   26.8833665072999999
   C    H    O    Si   W 
     4    52   154    65     1
Selective dynamics
Direct
  0.5603041496620121  0.4375042613992595  0.7768689207796029   T   T   T
  0.5424963429980028  0.4941238046589515  0.7381327347817195   T   T   T
  0.5522650002177756  0.3560702607979726  0.7622057838275073   T   T   T
  0.5755311894386053  0.5669864240870820  0.7419228034284751   T   T   T
  0.7606554946155809  0.1028948171730787  0.6512488886958209   T   T   T
  0.9264276758775409  0.2786689628389283  0.3563349293400009   F   F   F
  0.7933396966928186  0.2072788972396751  0.3734565163880745   F   F   F
  0.9745391127316694  0.9436086005532900  0.3253027906056829   F   F   F
  0.6257326647787878  0.9634728499897562  0.3752311999972449   F   F   F
  0.8205383986272707  0.9950066635937915  0.3689926296547128   F   F   F
  0.7499930738495308  0.1411787558468731  0.4580381926778543   F   F   F
  0.9153926106904409  0.2494472425938216  0.5094271711299129   T   T   T
  0.5834928632816769  0.3042635462298904  0.3059271726651787   F   F   F
  0.8914437923925653  0.3346952507466926  0.6160250455402596   T   T   T
  0.5878529692161465  0.3602908576875897  0.6141008870022612   T   T   T
  0.5930123478512229  0.8699597602045716  0.5779502080221254   T   T   T
  0.0342131676043317  0.3380736961809770  0.6517163225379183   T   T   T
  0.9352705076763712  0.4195142257503406  0.4541014552468710   F   F   F
  0.7461383787735159  0.5303119924306614  0.4224881911837883   F   F   F
  0.7976620044672228  0.3821132838953932  0.6345859196080077   T   T   T
  0.5911020174091490  0.5686828267211084  0.3780347436188976   F   F   F
  0.7184337867802384  0.6459327858135424  0.3834605945055571   F   F   F
  0.8411529142292764  0.5424265960688572  0.4195961671555111   F   F   F
  0.0047645486475076  0.6037981492295330  0.3577783004107076   F   F   F
  0.8283586993267491  0.7123566734117333  0.4679422553080954   F   F   F
  0.8775417756685761  0.5988457208392635  0.7210762648992343   T   T   T
  0.5199903139612303  0.9855647615614487  0.4217030704774842   F   F   F
  0.2230945721612159  0.9801548351936802  0.3932050219465495   F   F   F
  0.2163736907482345  0.2378514580028224  0.3192303272980936   F   F   F
  0.1575010503616241  0.3298062300070157  0.2789829167401123   F   F   F
  0.3415468765692253  0.1555857055490506  0.3307727584112428   F   F   F
  0.2227158616647102  0.0457589260230407  0.3227384335196248   F   F   F
  0.5108242068440750  0.8260834906247498  0.5465050648625999   T   T   T
  0.3877462539093254  0.2472841954177180  0.6492466517052998   T   T   T
  0.2432762020084555  0.0929845525724148  0.5987361070748601   T   T   T
  0.3153809713091036  0.4871364645735810  0.4424346656312608   F   F   F
  0.4089561837294582  0.4387348586869422  0.4056905975982730   F   F   F
  0.3984995032241372  0.7931136076499854  0.3887867966224334   F   F   F
  0.2442023571188656  0.6554300787776768  0.2943268807443218   F   F   F
  0.3117413815567005  0.4184757135367221  0.3692576443915385   F   F   F
  0.4054742948844066  0.5842796534641153  0.3388198885480591   F   F   F
  0.1393576205880507  0.4879736465794622  0.3519294596467617   F   F   F
  0.5932693451318087  0.6979871284243586  0.3523979868156601   F   F   F
  0.4690068301459220  0.8614274692379169  0.4438283837725479   F   F   F
  0.1220612039970489  0.3227551526545370  0.6115168116920723   T   T   T
  0.0731473779380797  0.6646563708660392  0.6458583156597241   T   T   T
  0.2451254593162738  0.3829864114641369  0.6821239977270428   T   T   T
  0.2445326140601666  0.8148928552216625  0.6692300511000960   T   T   T
  0.6058817526230482  0.4477995915851908  0.7852387487005641   T   T   T
  0.5371362767326294  0.4492084495904467  0.8118930730003143   T   T   T
  0.5683757715290298  0.3197907482447575  0.7919043459727048   T   T   T
  0.5070076823372587  0.3432790106515218  0.7558438894909093   T   T   T
  0.5759193735977065  0.3435166137221317  0.7278276649974758   T   T   T
  0.5728855393554552  0.5867220741866483  0.7807687092261889   T   T   T
  0.6209569439418416  0.5579702463463044  0.7329151715343535   T   T   T
  0.5595744439422814  0.6113490752301285  0.7179089501922077   T   T   T
  0.3689417337945073  0.6483550974205130  0.4390000177989322   F   F   F
  0.3468156499810249  0.5040338679473777  0.4203881275781143   F   F   F
  0.8606377624006204  0.5661112099288248  0.6966816000739406   T   T   T
  0.3487313068138969  0.9583274847928467  0.5308240361630562   T   T   T
  0.0334451508700697  0.9325397427788702  0.5285365023709993   T   T   T
  0.6363554822990451  0.0788685455599989  0.4893766723794641   F   F   F
  0.0686461464807948  0.0522654214745515  0.3951107345583225   F   F   F
  0.4518995424319527  0.1295623248292515  0.4205972814427668   F   F   F
  0.8058841492861291  0.2136501796918466  0.4831666074103040   F   F   F
  0.9731124395720335  0.1815343656988536  0.5987764610287145   T   T   T
  0.2747652928840907  0.2991728710101214  0.4485122250900346   F   F   F
  0.5563541661963498  0.7750912911781072  0.4417510122690658   F   F   F
  0.3920227932225545  0.9731441791021278  0.6197922761697156   T   T   T
  0.1775172398589788  0.3499684493290118  0.4052731245300478   F   F   F
  0.8664022798511795  0.6840696898986887  0.6373033915302309   T   T   T
  0.8656960102276017  0.9671769320775354  0.4670384592975196   F   F   F
  0.3010471365896024  0.7609368348742791  0.4579252567998537   F   F   F
  0.4216109456219570  0.2612522170148708  0.3795963030273342   F   F   F
  0.8110337865050118  0.4654668891630941  0.5200777814270963   T   T   T
  0.9835644854988859  0.0727717885990260  0.5212421348755685   T   T   T
  0.5197791744361754  0.4612219358853053  0.6270163652657034   T   T   T
  0.0345364061182565  0.9199477616519545  0.4294052572495062   F   F   F
  0.9630365419446250  0.3031953079439518  0.3512576249606170   F   F   F
  0.0696266904488567  0.3361057655302346  0.3763717815531962   F   F   F
  0.2082956575310035  0.7286442941956537  0.3953601014000157   F   F   F
  0.0389012629134911  0.4191019155796809  0.4991087535393461   F   F   F
  0.2395150181253043  0.2858698398900647  0.5878467510153521   T   T   T
  0.3967726932151015  0.1955652792410646  0.6445136338821639   T   T   T
  0.4549242488630957  0.5601522549256294  0.5836515913550562   T   T   T
  0.9097031865682609  0.7491695984021072  0.5574984014898990   T   T   T
  0.8691272713299156  0.1080433423588048  0.4422783307318099   F   F   F
  0.5725767945756743  0.6673318528661909  0.3761317316733468   F   F   F
  0.1424265590957958  0.1591254988132746  0.3759722435750490   F   F   F
  0.3500501215000430  0.7662016759925000  0.6068306277031551   T   T   T
  0.9109960497951874  0.8450475714254182  0.4831796236075121   F   F   F
  0.0613380104910135  0.5368717058331640  0.4422534820284341   F   F   F
  0.7083390277084121  0.5551665518466606  0.4199576800001736   F   F   F
  0.0754872572765848  0.8168068048942771  0.4829941554854784   F   F   F
  0.7004647711973604  0.8275557150113073  0.4326352913293690   F   F   F
  0.7300708010215822  0.0489262559739332  0.5430296589663446   T   T   T
  0.9188144298205755  0.3017993893255148  0.6320447004689707   T   T   T
  0.7348013898396700  0.8529282076875471  0.6128042673914749   T   T   T
  0.6251219543867705  0.5273940020615839  0.4863787091564404   F   F   F
  0.5565732987385132  0.6297030403834256  0.4672494240254110   F   F   F
  0.4266319006576134  0.2470927550139228  0.5557020334166176   T   T   T
  0.9782900938336425  0.7282436336050182  0.4767956400891720   F   F   F
  0.6539286729184230  0.5943019407781165  0.6333808450663337   T   T   T
  0.3965291014050122  0.7469304801116099  0.5153123540525908   T   T   T
  0.6026900685395375  0.5176654517715136  0.3856709925442061   F   F   F
  0.7196490283152713  0.6308950440327395  0.5569632416583068   T   T   T
  0.1467866587605499  0.3639902732658030  0.6198844345620890   T   T   T
  0.0661329860921080  0.5485395115738196  0.5419315143555927   T   T   T
  0.8188594716863860  0.8846004704821343  0.5366175291590596   T   T   T
  0.8282155306614527  0.3553851427237973  0.4519033357708793   F   F   F
  0.5279942942506695  0.2977723734490477  0.5307966651228148   T   T   T
  0.7366705244728992  0.4990941685979376  0.5954602683791395   T   T   T
  0.5574339360995921  0.1724311051770471  0.3949085375269945   F   F   F
  0.8059640829904495  0.2564125704700402  0.3832928600033014   F   F   F
  0.2374462167629616  0.9532507504721153  0.5079195554207132   F   F   F
  0.6925669063926760  0.7758052182601908  0.5415158594463955   T   T   T
  0.9238328008526150  0.9497895167863410  0.5529804059621757   T   T   T
  0.5257372223541736  0.3177811195808147  0.3985559351687087   F   F   F
  0.4683623487670224  0.9902295001425879  0.5461392150425886   T   T   T
  0.8374831040798003  0.0951147841622425  0.5398840372511405   T   T   T
  0.5379032530424510  0.1164174893117362  0.4862370923690094   F   F   F
  0.3501934425152129  0.1866087324322407  0.4396363938456389   F   F   F
  0.0117603228167908  0.9624138998997935  0.3352437574830063   F   F   F
  0.4547546303261146  0.5939927949673647  0.6769376437518070   T   T   T
  0.6549652215522386  0.9253975043083074  0.3792282539811964   F   F   F
  0.0762933429470323  0.6860262574042792  0.4358810225764742   F   F   F
  0.4542308280720114  0.4037446138845449  0.5538450822008213   T   T   T
  0.7192194366265099  0.7004208513439565  0.3795829994963285   F   F   F
  0.4495749153942865  0.7037166596045051  0.5998652017776430   T   T   T
  0.7525510591055777  0.7093245754016806  0.4762954835743187   F   F   F
  0.7784263776493311  0.1207164512220077  0.6209631878794563   T   T   T
  0.9932746155468877  0.3080134734220721  0.4484029789284989   F   F   F
  0.5329212884491783  0.5086717983779345  0.5300118684710174   T   T   T
  0.8167775852155614  0.4990617344698620  0.4234422052650615   F   F   F
  0.2352984724417868  0.1449675501497732  0.6054295194680118   T   T   T
  0.2035333057163413  0.8307013160788728  0.4705336293601903   F   F   F
  0.2399773897878431  0.5587592614303227  0.5228357049561533   T   T   T
  0.0611215927537084  0.6254353018509141  0.6237129085962885   T   T   T
  0.0460740722049948  0.6023466921755443  0.3541786312221902   F   F   F
  0.8006227876401359  0.9785875242003370  0.6057556173376069   T   T   T
  0.5379909097114037  0.0276974917800175  0.4045027517534763   F   F   F
  0.6045243235638480  0.3129637679666516  0.6050353511858193   T   T   T
  0.8615461075340960  0.0040808494918636  0.3692063291070653   F   F   F
  0.0949113079819810  0.1490228354028815  0.4670823258906296   F   F   F
  0.1714719029384456  0.2040646378740253  0.5308565578046147   T   T   T
  0.6409886548841044  0.7044387202342079  0.4548155821771758   F   F   F
  0.4367877834064799  0.4097684809000555  0.3864132536704119   F   F   F
  0.5743121709844548  0.0585037271912415  0.5710969441500974   T   T   T
  0.1514377462021059  0.5934080234999826  0.3889583608347777   F   F   F
  0.2677397900769023  0.6023375314212132  0.3923062966030031   F   F   F
  0.4402584600309112  0.3221981823130449  0.4703244327181508   F   F   F
  0.2380096658898907  0.1585111293566044  0.4299011866524154   F   F   F
  0.0727707413601364  0.1503140625620481  0.5625785590176894   T   T   T
  0.8448238824698566  0.5441627957894315  0.5997237823598026   T   T   T
  0.6211794284267498  0.2799398765994923  0.4109054511829981   F   F   F
  0.6026669933739228  0.8915266658304475  0.4672234595428861   F   F   F
  0.0313853912181870  0.1952898291212790  0.3889918752683101   F   F   F
  0.6079786299171566  0.1953443881292940  0.5475303167161905   T   T   T
  0.1327997263300347  0.9383546445758171  0.4794870772378772   F   F   F
  0.0802535001026725  0.2803921381433824  0.5115798398713297   T   T   T
  0.3726943206214800  0.1047285087591104  0.5690888814851376   T   T   T
  0.0666407848934969  0.6969878946857051  0.5357163633116518   T   T   T
  0.6664883802866157  0.4153848775992941  0.4300115561107631   F   F   F
  0.7992820961313924  0.7295211242188312  0.5641108809213266   T   T   T
  0.7038385586134339  0.9572084333329656  0.4701845621740759   F   F   F
  0.5976977399140808  0.6337353171634271  0.5531802437242664   T   T   T
  0.7228402998664549  0.2936846541148483  0.4516681052539582   F   F   F
  0.9775401896935600  0.3141655521401709  0.5472468497710516   T   T   T
  0.1582856757784285  0.6298122106370112  0.5706234283943715   T   T   T
  0.6333338448107071  0.3267830793000925  0.5078007023299378   F   F   F
  0.8195503184191930  0.3963220535838843  0.6054895614873598   T   T   T
  0.9585781980894978  0.0272430444030434  0.4169530046787955   F   F   F
  0.2820584287144215  0.1949816996956048  0.5186783554679671   T   T   T
  0.2492575497532457  0.4430328891806070  0.4610556955705079   F   F   F
  0.2718093242481865  0.8500201630150110  0.5690014916307523   T   T   T
  0.2036681493187373  0.6855731694819696  0.4868887178860462   F   F   F
  0.1471234534495878  0.4760698767055516  0.4925449251270066   F   F   F
  0.2244489154598327  0.4227509841333194  0.5568175773821701   T   T   T
  0.9114169782859136  0.4527445982196738  0.4737188145108959   F   F   F
  0.8697881761182842  0.7045601105568409  0.4641535209108483   F   F   F
  0.7381202078118392  0.0928346185702935  0.4452296472671975   F   F   F
  0.2221834364607460  0.9297811898377830  0.4079468165165281   F   F   F
  0.2520076457748135  0.4027618288699304  0.6491741577769400   T   T   T
  0.6299756384269902  0.8826606458065799  0.5934074937589959   T   T   T
  0.4102232653459481  0.7890623920405417  0.4234373851432949   F   F   F
  0.9177713527308597  0.1960382937010650  0.5082451459005242   F   F   F
  0.1325470584190001  0.4435361138679994  0.3322726622007863   F   F   F
  0.1551476808853849  0.3035232552477680  0.3105604161752922   F   F   F
  0.3730051452693530  0.1309070432977180  0.3479534200993726   F   F   F
  0.0345539716846161  0.2918566530189785  0.6334672151072693   T   T   T
  0.5726892607782261  0.2568681914203168  0.3200996781806822   F   F   F
  0.2444028222269773  0.7698332642051887  0.6497595285338472   T   T   T
  0.2073742988973706  0.6484050497390186  0.3103690611938177   F   F   F
  0.2753744117793318  0.3921912990854679  0.3673758273212613   F   F   F
  0.3653508124869589  0.5975866322176486  0.3422207943191111   F   F   F
  0.2263808502218509  0.0561808240814585  0.3581188824802055   F   F   F
  0.2412033350308818  0.1960782276637332  0.3293429668079639   F   F   F
  0.5012729261715734  0.8923016219130631  0.4548416832162587   F   F   F
  0.5498749247016850  0.8276007287594274  0.5342982546199917   T   T   T
  0.5443187582002241  0.6471777065639519  0.6339970139778445   T   T   T
  0.4785708625449239  0.1219316652210073  0.5961307162872644   T   T   T
  0.2625051600259763  0.6943309165286337  0.5685282954737687   T   T   T
  0.4425500200055117  0.8472287158421831  0.5816160577002470   T   T   T
  0.7653737996340390  0.6167721064652635  0.6494248787443000   T   T   T
  0.8445992106030494  0.8316234994721297  0.6230178443427540   T   T   T
  0.6396533294923097  0.7393577594005066  0.6211148536900550   T   T   T
  0.0081569929456668  0.0334436408870310  0.6029850449918537   T   T   T
  0.2843882324091179  0.0020141578527308  0.5938189273844290   T   T   T
  0.5034875967772534  0.9717366333228415  0.6285272080039466   T   T   T
  0.4369936256313129  0.4244195332819815  0.7083172124956774   T   T   T
  0.0832252792583148  0.6064203007651798  0.4064130837160320   F   F   F
  0.4085824201357924  0.7659592414445784  0.5746322361346572   T   T   T
  0.8417638189676637  0.4414531151631493  0.4678389696388976   F   F   F
  0.0170894936830805  0.9904820388830231  0.3936113541928137   F   F   F
  0.0147002066459194  0.2841902736836772  0.3910814136036507   F   F   F
  0.0092805982941186  0.1150804543202244  0.5725142173778166   T   T   T
  0.6091613902006385  0.6575070934112009  0.6108152407077119   T   T   T
  0.2139816743678690  0.4758703482711650  0.5097515222091464   T   T   T
  0.9150621278077509  0.7555609373921541  0.4962545438487922   F   F   F
  0.5205785424995497  0.1104556260576075  0.4259865881079392   F   F   F
  0.4187627674451042  0.1696474389834797  0.5893609784254867   T   T   T
  0.0834525281692322  0.1391720770259113  0.4069808717903314   F   F   F
  0.7018979345349692  0.0448462544573900  0.4873230277072054   F   F   F
  0.6650593546526977  0.8980374634385981  0.4374764361266443   F   F   F
  0.6500987440092842  0.5040270570271090  0.4301508871204760   F   F   F
  0.1984606475676856  0.9124822313593555  0.4639906909803457   F   F   F
  0.2144030052257034  0.3665720722777369  0.6036136938466025   T   T   T
  0.6733974193888007  0.8133221532603575  0.5946336223177197   T   T   T
  0.2166340262437911  0.6415689760994545  0.5385254298231824   T   T   T
  0.3687891183983183  0.7351277332740764  0.4592092972079129   F   F   F
  0.7972902506683651  0.8884087469493733  0.5955979201730829   T   T   T
  0.8797938378738518  0.9122784185231830  0.5119972349387929   T   T   T
  0.5763723921907996  0.5746310915568489  0.5117414536535150   T   T   T
  0.5898931210459979  0.1154853196653473  0.5252153154927178   T   T   T
  0.8581223412116756  0.1521132323139867  0.4951759473310489   F   F   F
  0.8353385288314125  0.6036073585337308  0.6458298037318173   T   T   T
  0.1337385207956885  0.3603189035945249  0.3568722791356791   F   F   F
  0.7906552883383853  0.2799392456050427  0.4418726542293072   F   F   F
  0.3991760968159852  0.1774948439022879  0.3960031981861079   F   F   F
  0.8559173103838835  0.7500716515399145  0.5965165734773981   T   T   T
  0.2827898738130922  0.9347227037789019  0.5497791665864443   T   T   T
  0.0230747323006639  0.3304475145523895  0.5022455100715746   F   F   F
  0.5745593848382811  0.6954900809313358  0.4355643604055430   F   F   F
  0.2302409542512009  0.7526004965268882  0.4519695445397645   F   F   F
  0.5937566546343972  0.2837862043859269  0.5481019490834244   T   T   T
  0.9751823233003546  0.2723039412664577  0.6026562388932485   T   T   T
  0.8889063590695159  0.0254089988525621  0.4242001869335610   F   F   F
  0.1047385445164962  0.1954880357064862  0.5177508797010895   T   T   T
  0.0481456608991806  0.7330370933910686  0.4826301941714348   F   F   F
  0.2319526267522187  0.2057118601893891  0.5611250941714272   T   T   T
  0.5614078070968063  0.2577852696884548  0.3812261074005363   F   F   F
  0.4759351278858890  0.6275558464661714  0.6224638735888769   T   T   T
  0.2808468628842913  0.7705266111647858  0.5977875393094210   T   T   T
  0.2085008253050660  0.6433998444573277  0.3717945352858223   F   F   F
  0.7403426719262539  0.7105577061762799  0.5358239189432633   T   T   T
  0.9865642499270871  0.9906347380007695  0.5503658483927616   T   T   T
  0.7031045578374417  0.7368181531158413  0.4342603982179796   F   F   F
  0.7877837779357386  0.0594021469286817  0.5768203717437814   T   T   T
  0.4563138980148480  0.3284515949804003  0.4092878915485585   F   F   F
  0.4495646728663075  0.9361729914099957  0.5944964177796759   T   T   T
  0.5086722559093494  0.0409063572471312  0.5859638843445618   T   T   T
  0.2442471516899545  0.3704063238346720  0.4209471039025985   F   F   F
  0.6585253437214931  0.3300021108019919  0.4503479098948588   F   F   F
  0.4609001796314387  0.3179064722495871  0.5287725694360195   T   T   T
  0.3372993678552234  0.5899425417192177  0.3990830096962270   F   F   F
  0.8030820051342886  0.4764404447826595  0.5797234016062222   T   T   T
  0.0692097893945274  0.8988591556575116  0.4805055068825652   F   F   F
  0.2119075788647606  0.1444543212654636  0.3735965933534686   F   F   F
  0.0782328566383796  0.4939849950151185  0.4946876202126234   F   F   F
  0.5575701889662170  0.8523400985831628  0.4747302534090920   F   F   F
  0.7181694288323821  0.5846080066396785  0.6095324638485571   T   T   T
  0.2866421242385897  0.2101017385025088  0.4591107728955208   F   F   F
  0.0880849473585402  0.6254657223140169  0.5676231690035003   T   T   T
  0.3533122210250029  0.0192457246799849  0.5785508720170706   T   T   T
  0.4886229729218696  0.4797333679216635  0.5727175091408678   T   T   T
  0.4824957380887136  0.4939478247649065  0.6896109414857614   T   T   T

  0.00000000E+00  0.00000000E+00  0.00000000E+00
  0.00000000E+00  0.00000000E+00  0.00000000E+00
  0.00000000E+00  0.00000000E+00  0.00000000E+00
  0.00000000E+00  0.00000000E+00  0.00000000E+00
  0.00000000E+00  0.00000000E+00  0.00000000E+00
  0.00000000E+00  0.00000000E+00  0.00000000E+00
  0.00000000E+00  0.00000000E+00  0.00000000E+00
  0.00000000E+00  0.00000000E+00  0.00000000E+00
  0.00000000E+00  0.00000000E+00  0.00000000E+00
  0.00000000E+00  0.00000000E+00  0.00000000E+00
  0.00000000E+00  0.00000000E+00  0.00000000E+00
  0.00000000E+00  0.00000000E+00  0.00000000E+00
  0.00000000E+00  0.00000000E+00  0.00000000E+00
  0.00000000E+00  0.00000000E+00  0.00000000E+00
  0.00000000E+00  0.00000000E+00  0.00000000E+00
  0.00000000E+00  0.00000000E+00  0.00000000E+00
  0.00000000E+00  0.00000000E+00  0.00000000E+00
  0.00000000E+00  0.00000000E+00  0.00000000E+00
  0.00000000E+00  0.00000000E+00  0.00000000E+00
  0.00000000E+00  0.00000000E+00  0.00000000E+00
  0.00000000E+00  0.00000000E+00  0.00000000E+00
  0.00000000E+00  0.00000000E+00  0.00000000E+00
  0.00000000E+00  0.00000000E+00  0.00000000E+00
  0.00000000E+00  0.00000000E+00  0.00000000E+00
  0.00000000E+00  0.00000000E+00  0.00000000E+00
  0.00000000E+00  0.00000000E+00  0.00000000E+00
  0.00000000E+00  0.00000000E+00  0.00000000E+00
  0.00000000E+00  0.00000000E+00  0.00000000E+00
  0.00000000E+00  0.00000000E+00  0.00000000E+00
  0.00000000E+00  0.00000000E+00  0.00000000E+00
  0.00000000E+00  0.00000000E+00  0.00000000E+00
  0.00000000E+00  0.00000000E+00  0.00000000E+00
  0.00000000E+00  0.00000000E+00  0.00000000E+00
  0.00000000E+00  0.00000000E+00  0.00000000E+00
  0.00000000E+00  0.00000000E+00  0.00000000E+00
  0.00000000E+00  0.00000000E+00  0.00000000E+00
  0.00000000E+00  0.00000000E+00  0.00000000E+00
  0.00000000E+00  0.00000000E+00  0.00000000E+00
  0.00000000E+00  0.00000000E+00  0.00000000E+00
  0.00000000E+00  0.00000000E+00  0.00000000E+00
  0.00000000E+00  0.00000000E+00  0.00000000E+00
  0.00000000E+00  0.00000000E+00  0.00000000E+00
  0.00000000E+00  0.00000000E+00  0.00000000E+00
  0.00000000E+00  0.00000000E+00  0.00000000E+00
  0.00000000E+00  0.00000000E+00  0.00000000E+00
  0.00000000E+00  0.00000000E+00  0.00000000E+00
  0.00000000E+00  0.00000000E+00  0.00000000E+00
  0.00000000E+00  0.00000000E+00  0.00000000E+00
  0.00000000E+00  0.00000000E+00  0.00000000E+00
  0.00000000E+00  0.00000000E+00  0.00000000E+00
  0.00000000E+00  0.00000000E+00  0.00000000E+00
  0.00000000E+00  0.00000000E+00  0.00000000E+00
  0.00000000E+00  0.00000000E+00  0.00000000E+00
  0.00000000E+00  0.00000000E+00  0.00000000E+00
  0.00000000E+00  0.00000000E+00  0.00000000E+00
  0.00000000E+00  0.00000000E+00  0.00000000E+00
  0.00000000E+00  0.00000000E+00  0.00000000E+00
  0.00000000E+00  0.00000000E+00  0.00000000E+00
  0.00000000E+00  0.00000000E+00  0.00000000E+00
  0.00000000E+00  0.00000000E+00  0.00000000E+00
  0.00000000E+00  0.00000000E+00  0.00000000E+00
  0.00000000E+00  0.00000000E+00  0.00000000E+00
  0.00000000E+00  0.00000000E+00  0.00000000E+00
  0.00000000E+00  0.00000000E+00  0.00000000E+00
  0.00000000E+00  0.00000000E+00  0.00000000E+00
  0.00000000E+00  0.00000000E+00  0.00000000E+00
  0.00000000E+00  0.00000000E+00  0.00000000E+00
  0.00000000E+00  0.00000000E+00  0.00000000E+00
  0.00000000E+00  0.00000000E+00  0.00000000E+00
  0.00000000E+00  0.00000000E+00  0.00000000E+00
  0.00000000E+00  0.00000000E+00  0.00000000E+00
  0.00000000E+00  0.00000000E+00  0.00000000E+00
  0.00000000E+00  0.00000000E+00  0.00000000E+00
  0.00000000E+00  0.00000000E+00  0.00000000E+00
  0.00000000E+00  0.00000000E+00  0.00000000E+00
  0.00000000E+00  0.00000000E+00  0.00000000E+00
  0.00000000E+00  0.00000000E+00  0.00000000E+00
  0.00000000E+00  0.00000000E+00  0.00000000E+00
  0.00000000E+00  0.00000000E+00  0.00000000E+00
  0.00000000E+00  0.00000000E+00  0.00000000E+00
  0.00000000E+00  0.00000000E+00  0.00000000E+00
  0.00000000E+00  0.00000000E+00  0.00000000E+00
  0.00000000E+00  0.00000000E+00  0.00000000E+00
  0.00000000E+00  0.00000000E+00  0.00000000E+00
  0.00000000E+00  0.00000000E+00  0.00000000E+00
  0.00000000E+00  0.00000000E+00  0.00000000E+00
  0.00000000E+00  0.00000000E+00  0.00000000E+00
  0.00000000E+00  0.00000000E+00  0.00000000E+00
  0.00000000E+00  0.00000000E+00  0.00000000E+00
  0.00000000E+00  0.00000000E+00  0.00000000E+00
  0.00000000E+00  0.00000000E+00  0.00000000E+00
  0.00000000E+00  0.00000000E+00  0.00000000E+00
  0.00000000E+00  0.00000000E+00  0.00000000E+00
  0.00000000E+00  0.00000000E+00  0.00000000E+00
  0.00000000E+00  0.00000000E+00  0.00000000E+00
  0.00000000E+00  0.00000000E+00  0.00000000E+00
  0.00000000E+00  0.00000000E+00  0.00000000E+00
  0.00000000E+00  0.00000000E+00  0.00000000E+00
  0.00000000E+00  0.00000000E+00  0.00000000E+00
  0.00000000E+00  0.00000000E+00  0.00000000E+00
  0.00000000E+00  0.00000000E+00  0.00000000E+00
  0.00000000E+00  0.00000000E+00  0.00000000E+00
  0.00000000E+00  0.00000000E+00  0.00000000E+00
  0.00000000E+00  0.00000000E+00  0.00000000E+00
  0.00000000E+00  0.00000000E+00  0.00000000E+00
  0.00000000E+00  0.00000000E+00  0.00000000E+00
  0.00000000E+00  0.00000000E+00  0.00000000E+00
  0.00000000E+00  0.00000000E+00  0.00000000E+00
  0.00000000E+00  0.00000000E+00  0.00000000E+00
  0.00000000E+00  0.00000000E+00  0.00000000E+00
  0.00000000E+00  0.00000000E+00  0.00000000E+00
  0.00000000E+00  0.00000000E+00  0.00000000E+00
  0.00000000E+00  0.00000000E+00  0.00000000E+00
  0.00000000E+00  0.00000000E+00  0.00000000E+00
  0.00000000E+00  0.00000000E+00  0.00000000E+00
  0.00000000E+00  0.00000000E+00  0.00000000E+00
  0.00000000E+00  0.00000000E+00  0.00000000E+00
  0.00000000E+00  0.00000000E+00  0.00000000E+00
  0.00000000E+00  0.00000000E+00  0.00000000E+00
  0.00000000E+00  0.00000000E+00  0.00000000E+00
  0.00000000E+00  0.00000000E+00  0.00000000E+00
  0.00000000E+00  0.00000000E+00  0.00000000E+00
  0.00000000E+00  0.00000000E+00  0.00000000E+00
  0.00000000E+00  0.00000000E+00  0.00000000E+00
  0.00000000E+00  0.00000000E+00  0.00000000E+00
  0.00000000E+00  0.00000000E+00  0.00000000E+00
  0.00000000E+00  0.00000000E+00  0.00000000E+00
  0.00000000E+00  0.00000000E+00  0.00000000E+00
  0.00000000E+00  0.00000000E+00  0.00000000E+00
  0.00000000E+00  0.00000000E+00  0.00000000E+00
  0.00000000E+00  0.00000000E+00  0.00000000E+00
  0.00000000E+00  0.00000000E+00  0.00000000E+00
  0.00000000E+00  0.00000000E+00  0.00000000E+00
  0.00000000E+00  0.00000000E+00  0.00000000E+00
  0.00000000E+00  0.00000000E+00  0.00000000E+00
  0.00000000E+00  0.00000000E+00  0.00000000E+00
  0.00000000E+00  0.00000000E+00  0.00000000E+00
  0.00000000E+00  0.00000000E+00  0.00000000E+00
  0.00000000E+00  0.00000000E+00  0.00000000E+00
  0.00000000E+00  0.00000000E+00  0.00000000E+00
  0.00000000E+00  0.00000000E+00  0.00000000E+00
  0.00000000E+00  0.00000000E+00  0.00000000E+00
  0.00000000E+00  0.00000000E+00  0.00000000E+00
  0.00000000E+00  0.00000000E+00  0.00000000E+00
  0.00000000E+00  0.00000000E+00  0.00000000E+00
  0.00000000E+00  0.00000000E+00  0.00000000E+00
  0.00000000E+00  0.00000000E+00  0.00000000E+00
  0.00000000E+00  0.00000000E+00  0.00000000E+00
  0.00000000E+00  0.00000000E+00  0.00000000E+00
  0.00000000E+00  0.00000000E+00  0.00000000E+00
  0.00000000E+00  0.00000000E+00  0.00000000E+00
  0.00000000E+00  0.00000000E+00  0.00000000E+00
  0.00000000E+00  0.00000000E+00  0.00000000E+00
  0.00000000E+00  0.00000000E+00  0.00000000E+00
  0.00000000E+00  0.00000000E+00  0.00000000E+00
  0.00000000E+00  0.00000000E+00  0.00000000E+00
  0.00000000E+00  0.00000000E+00  0.00000000E+00
  0.00000000E+00  0.00000000E+00  0.00000000E+00
  0.00000000E+00  0.00000000E+00  0.00000000E+00
  0.00000000E+00  0.00000000E+00  0.00000000E+00
  0.00000000E+00  0.00000000E+00  0.00000000E+00
  0.00000000E+00  0.00000000E+00  0.00000000E+00
  0.00000000E+00  0.00000000E+00  0.00000000E+00
  0.00000000E+00  0.00000000E+00  0.00000000E+00
  0.00000000E+00  0.00000000E+00  0.00000000E+00
  0.00000000E+00  0.00000000E+00  0.00000000E+00
  0.00000000E+00  0.00000000E+00  0.00000000E+00
  0.00000000E+00  0.00000000E+00  0.00000000E+00
  0.00000000E+00  0.00000000E+00  0.00000000E+00
  0.00000000E+00  0.00000000E+00  0.00000000E+00
  0.00000000E+00  0.00000000E+00  0.00000000E+00
  0.00000000E+00  0.00000000E+00  0.00000000E+00
  0.00000000E+00  0.00000000E+00  0.00000000E+00
  0.00000000E+00  0.00000000E+00  0.00000000E+00
  0.00000000E+00  0.00000000E+00  0.00000000E+00
  0.00000000E+00  0.00000000E+00  0.00000000E+00
  0.00000000E+00  0.00000000E+00  0.00000000E+00
  0.00000000E+00  0.00000000E+00  0.00000000E+00
  0.00000000E+00  0.00000000E+00  0.00000000E+00
  0.00000000E+00  0.00000000E+00  0.00000000E+00
  0.00000000E+00  0.00000000E+00  0.00000000E+00
  0.00000000E+00  0.00000000E+00  0.00000000E+00
  0.00000000E+00  0.00000000E+00  0.00000000E+00
  0.00000000E+00  0.00000000E+00  0.00000000E+00
  0.00000000E+00  0.00000000E+00  0.00000000E+00
  0.00000000E+00  0.00000000E+00  0.00000000E+00
  0.00000000E+00  0.00000000E+00  0.00000000E+00
  0.00000000E+00  0.00000000E+00  0.00000000E+00
  0.00000000E+00  0.00000000E+00  0.00000000E+00
  0.00000000E+00  0.00000000E+00  0.00000000E+00
  0.00000000E+00  0.00000000E+00  0.00000000E+00
  0.00000000E+00  0.00000000E+00  0.00000000E+00
  0.00000000E+00  0.00000000E+00  0.00000000E+00