C  H  O  Si W                           
   1.0000000000000000     
    23.4112945954000011    0.0000000000000000    0.0000000000000000
     0.0000000000000000   18.1212369513999967    0.0000000000000000
     0.0000000000000000    0.0000000000000000   26.8833665072999999
   C    H    O    Si   W 
     4    52   154    65     1
Selective dynamics
Direct
  0.6603795907411635  0.4189593748393912  0.7147610543366538   T   T   T
  0.5502147286133376  0.5180183048752101  0.7928691017945781   T   T   T
  0.5410735142042050  0.5257538688733123  0.7376997048319022   T   T   T
  0.6846628235528721  0.4278497795723856  0.7595209648521911   T   T   T
  0.7607626874760564  0.1037589336829258  0.6510976588233193   T   T   T
  0.9264276758305172  0.2786689626896504  0.3563349293400009   F   F   F
  0.7933396966457948  0.2072788970903972  0.3734565163880745   F   F   F
  0.9745391126846457  0.9436086004040121  0.3253027906056829   F   F   F
  0.6257326647317640  0.9634728498404783  0.3752311999972449   F   F   F
  0.8205383985802470  0.9950066634445136  0.3689926296547128   F   F   F
  0.7499930738025071  0.1411787556975952  0.4580381926778543   F   F   F
  0.9154671925773834  0.2494633380579091  0.5091351100436367   T   T   T
  0.5834928632346532  0.3042635460806125  0.3059271726651787   F   F   F
  0.8910567628391003  0.3342600624527224  0.6161550197837453   T   T   T
  0.5957190950945311  0.3625194652960618  0.6133114858819805   T   T   T
  0.5934949494635103  0.8709543364380405  0.5778421438906592   T   T   T
  0.0332121670044806  0.3371081462824083  0.6529317204051807   T   T   T
  0.9352705076293475  0.4195142256010627  0.4541014552468710   F   F   F
  0.7461383787264921  0.5303119922813835  0.4224881911837883   F   F   F
  0.7984296094555718  0.3846947469812573  0.6367790085474165   T   T   T
  0.5911020173621253  0.5686828265718304  0.3780347436188976   F   F   F
  0.7184337867332147  0.6459327856642645  0.3834605945055571   F   F   F
  0.8411529141822527  0.5424265959195793  0.4195961671555111   F   F   F
  0.0047645486004839  0.6037981490802551  0.3577783004107076   F   F   F
  0.8283586992797254  0.7123566732624553  0.4679422553080954   F   F   F
  0.8772649413546967  0.5988528146576564  0.7213337873406895   T   T   T
  0.5199903139142066  0.9855647614121708  0.4217030704774842   F   F   F
  0.2230945721141921  0.9801548350444023  0.3932050219465495   F   F   F
  0.2163736907012108  0.2378514578535444  0.3192303272980936   F   F   F
  0.1575010503146004  0.3298062298577378  0.2789829167401123   F   F   F
  0.3415468765222016  0.1555857053997727  0.3307727584112428   F   F   F
  0.2227158616176865  0.0457589258737627  0.3227384335196248   F   F   F
  0.5111499091069386  0.8269381333087877  0.5469031596716918   T   T   T
  0.3688620030577914  0.2344115066552188  0.6479698993709060   T   T   T
  0.2432609489322219  0.0934470779389758  0.5988065107620436   T   T   T
  0.3153809712620799  0.4871364644243030  0.4424346656312608   F   F   F
  0.4089561836824345  0.4387348585376643  0.4056905975982730   F   F   F
  0.3984995031771135  0.7931136075007075  0.3887867966224334   F   F   F
  0.2442023570718419  0.6554300786283989  0.2943268807443218   F   F   F
  0.3117413815096768  0.4184757133874442  0.3692576443915385   F   F   F
  0.4054742948373828  0.5842796533148373  0.3388198885480591   F   F   F
  0.1393576205410270  0.4879736464301843  0.3519294596467617   F   F   F
  0.5932693450847850  0.6979871282750807  0.3523979868156601   F   F   F
  0.4690068300988983  0.8614274690886390  0.4438283837725479   F   F   F
  0.1229542574008616  0.3243276484440256  0.6135415255660305   T   T   T
  0.0742441996470668  0.6637030967918134  0.6462818786063000   T   T   T
  0.2451531595653290  0.3888711356852935  0.6820296505600945   T   T   T
  0.2479877019999553  0.8145202388989768  0.6703635102404029   T   T   T
  0.6382740818322415  0.3679971308120953  0.7046835092747715   T   T   T
  0.6612417340518024  0.4626421080910259  0.6867943404000649   T   T   T
  0.5909116649103655  0.4897232477525271  0.8007749755483609   T   T   T
  0.5151066148417124  0.4872603757079269  0.8103802451079981   T   T   T
  0.5525179429479430  0.5732433101853913  0.8102064406134859   T   T   T
  0.5749741703316723  0.5554655198908474  0.7170908405296011   T   T   T
  0.7065434717463023  0.4789498331868832  0.7697618359036947   T   T   T
  0.6831312567205439  0.3845741466698007  0.7878296310858611   T   T   T
  0.3689417337474836  0.6483550972712351  0.4390000177989322   F   F   F
  0.3468156499340012  0.5040338677980998  0.4203881275781143   F   F   F
  0.8606762044972996  0.5662377893757907  0.6967142538262565   T   T   T
  0.3486292463191031  0.9603838026700052  0.5305103828488409   T   T   T
  0.0334550256941381  0.9325655288146866  0.5285171114940846   T   T   T
  0.6363554822520214  0.0788685454107210  0.4893766723794641   F   F   F
  0.0686461464337711  0.0522654213252736  0.3951107345583225   F   F   F
  0.4518995423849290  0.1295623246799735  0.4205972814427668   F   F   F
  0.8058841492391053  0.2136501795425687  0.4831666074103040   F   F   F
  0.9731078917710085  0.1815452706371256  0.5987753689563483   T   T   T
  0.2747652928370670  0.2991728708608434  0.4485122250900346   F   F   F
  0.5563541661493261  0.7750912910288292  0.4417510122690658   F   F   F
  0.3908330462339406  0.9752861044974226  0.6196466992766605   T   T   T
  0.1775172398119551  0.3499684491797339  0.4052731245300478   F   F   F
  0.8663385810549433  0.6843246942686078  0.6373265221271407   T   T   T
  0.8656960101805780  0.9671769319282575  0.4670384592975196   F   F   F
  0.3010471365425786  0.7609368347250012  0.4579252567998537   F   F   F
  0.4216109455749333  0.2612522168655929  0.3795963030273342   F   F   F
  0.8113109284698583  0.4647933896956510  0.5203954921111198   T   T   T
  0.9835957635678910  0.0727783537345277  0.5212397249491995   T   T   T
  0.5089053262751019  0.4634921145174571  0.6314615184278325   T   T   T
  0.0345364060712328  0.9199477615026765  0.4294052572495062   F   F   F
  0.9630365418976012  0.3031953077946739  0.3512576249606170   F   F   F
  0.0696266904018330  0.3361057653809567  0.3763717815531962   F   F   F
  0.2082956574839798  0.7286442940463758  0.3953601014000157   F   F   F
  0.0389012628664673  0.4191019154304030  0.4991087535393461   F   F   F
  0.2399492625159475  0.2860838287061314  0.5877609646675069   T   T   T
  0.3974462084032168  0.1958717042923939  0.6454221669499645   T   T   T
  0.4549938658403944  0.5646733384005279  0.5802514936630058   T   T   T
  0.9098122754774222  0.7491959849444709  0.5574974132029644   T   T   T
  0.8691272712828919  0.1080433422095268  0.4422783307318099   F   F   F
  0.5725767945286506  0.6673318527169130  0.3761317316733468   F   F   F
  0.1424265590487721  0.1591254986639967  0.3759722435750490   F   F   F
  0.3513638860977532  0.7651637252985450  0.6065349732538200   T   T   T
  0.9109960497481637  0.8450475712761403  0.4831796236075121   F   F   F
  0.0613380104439898  0.5368717056838861  0.4422534820284341   F   F   F
  0.7083390276613883  0.5551665516973827  0.4199576800001736   F   F   F
  0.0754872572295611  0.8168068047449992  0.4829941554854784   F   F   F
  0.7004647711503367  0.8275557148620294  0.4326352913293690   F   F   F
  0.7301585844296807  0.0489811937131427  0.5429912820991256   T   T   T
  0.9189445464111330  0.3020279044243624  0.6321196193659656   T   T   T
  0.7350775109835818  0.8534485927241036  0.6129265334974452   T   T   T
  0.6251219543397468  0.5273940019123060  0.4863787091564404   F   F   F
  0.5565732986914895  0.6297030402341477  0.4672494240254110   F   F   F
  0.4252185086708307  0.2489826388326620  0.5560058922550973   T   T   T
  0.9782900937866188  0.7282436334557403  0.4767956400891720   F   F   F
  0.6540570557083852  0.5943266355202186  0.6333256825295965   T   T   T
  0.3963969338958379  0.7480795452865165  0.5149246389175545   T   T   T
  0.6026900684925138  0.5176654516222357  0.3856709925442061   F   F   F
  0.7200527389631304  0.6313279383082170  0.5570347096130982   T   T   T
  0.1484146723045089  0.3650146533790102  0.6215752738707612   T   T   T
  0.0666046634766292  0.5486182380453269  0.5419574400729393   T   T   T
  0.8189168175423742  0.8847818851642777  0.5366539469217009   T   T   T
  0.8282155306144290  0.3553851425745194  0.4519033357708793   F   F   F
  0.5275424364482800  0.2979315493045970  0.5320229334207610   T   T   T
  0.7366327343604158  0.4994455209190428  0.5954134253697404   T   T   T
  0.5574339360525684  0.1724311050277691  0.3949085375269945   F   F   F
  0.8059640829434258  0.2564125703207623  0.3832928600033014   F   F   F
  0.2374462167159379  0.9532507503228373  0.5079195554207132   F   F   F
  0.6929367605626325  0.7765344396356094  0.5415635408208661   T   T   T
  0.9239154969112526  0.9498031557417052  0.5529235123457290   T   T   T
  0.5257372223071499  0.3177811194315368  0.3985559351687087   F   F   F
  0.4673998561777870  0.9937733456323593  0.5463041719451439   T   T   T
  0.8376941484932707  0.0948596990912154  0.5397708646679737   T   T   T
  0.5379032529954273  0.1164174891624583  0.4862370923690094   F   F   F
  0.3501934424681892  0.1866087322829628  0.4396363938456389   F   F   F
  0.0117603227697671  0.9624138997505156  0.3352437574830063   F   F   F
  0.4499700957763368  0.6014818169126857  0.6734119777113345   T   T   T
  0.6549652215052149  0.9253975041590294  0.3792282539811964   F   F   F
  0.0762933429000086  0.6860262572550013  0.4358810225764742   F   F   F
  0.4543267036424086  0.4057590547508430  0.5529553308769494   T   T   T
  0.7192194365794862  0.7004208511946786  0.3795829994963285   F   F   F
  0.4537413439014685  0.7086831711833401  0.5969679128158896   T   T   T
  0.7525510590585540  0.7093245752524027  0.4762954835743187   F   F   F
  0.7785283361345385  0.1211359454725079  0.6207166481451153   T   T   T
  0.9932746154998640  0.3080134732727942  0.4484029789284989   F   F   F
  0.5370966506684336  0.5084062934407582  0.5351979032098394   T   T   T
  0.8167775851685377  0.4990617343205841  0.4234422052650615   F   F   F
  0.2359327178705872  0.1456335857856522  0.6055158294546250   T   T   T
  0.2035333056693176  0.8307013159295948  0.4705336293601903   F   F   F
  0.2400244943084337  0.5589823913940269  0.5229136044131090   T   T   T
  0.0613704593734891  0.6254593832950746  0.6237192649032097   T   T   T
  0.0460740721579711  0.6023466920262663  0.3541786312221902   F   F   F
  0.8008848452653142  0.9789255409521277  0.6058335246992512   T   T   T
  0.5379909096643800  0.0276974916307395  0.4045027517534763   F   F   F
  0.6064544155992713  0.3122935054464375  0.6049727111944699   T   T   T
  0.8615461074870723  0.0040808493425857  0.3692063291070653   F   F   F
  0.0949113079349573  0.1490228352536036  0.4670823258906296   F   F   F
  0.1714310145817975  0.2041019983019436  0.5309406012950383   T   T   T
  0.6409886548370807  0.7044387200849300  0.4548155821771758   F   F   F
  0.4367877833594562  0.4097684807507775  0.3864132536704119   F   F   F
  0.5738162055849928  0.0599199253043642  0.5716726095846706   T   T   T
  0.1514377461550822  0.5934080233507046  0.3889583608347777   F   F   F
  0.2677397900298786  0.6023375312719352  0.3923062966030031   F   F   F
  0.4402584599838875  0.3221981821637669  0.4703244327181508   F   F   F
  0.2380096658428670  0.1585111292073265  0.4299011866524154   F   F   F
  0.0727773278186158  0.1503076579917620  0.5625917464569167   T   T   T
  0.8447387158714622  0.5442706501005320  0.5998632053215958   T   T   T
  0.6211794283797261  0.2799398764502143  0.4109054511829981   F   F   F
  0.6026669933268991  0.8915266656811696  0.4672234595428861   F   F   F
  0.0313853911711632  0.1952898289720011  0.3889918752683101   F   F   F
  0.6078925341408562  0.1955733362796465  0.5473113117850359   T   T   T
  0.1327997262830110  0.9383546444265392  0.4794870772378772   F   F   F
  0.0802704662725453  0.2804103800672123  0.5115784856948765   T   T   T
  0.3718965840226625  0.1071016631986897  0.5682633558396524   T   T   T
  0.0668097705987765  0.6968858530379793  0.5356220618598877   T   T   T
  0.6664883802395920  0.4153848774500162  0.4300115561107631   F   F   F
  0.7994374778318803  0.7299903228505755  0.5641000705140661   T   T   T
  0.7038385585664102  0.9572084331836876  0.4701845621740759   F   F   F
  0.5994406619374373  0.6363491519355841  0.5524928872600477   T   T   T
  0.7228402998194312  0.2936846539655704  0.4516681052539582   F   F   F
  0.9775638073430928  0.3141357880147977  0.5472310305010569   T   T   T
  0.1586201528989672  0.6302762444141444  0.5707577037873141   T   T   T
  0.6333338447636834  0.3267830791508146  0.5078007023299378   F   F   F
  0.8188964465753489  0.3964647563790420  0.6063686411252823   T   T   T
  0.9585781980424741  0.0272430442537654  0.4169530046787955   F   F   F
  0.2819986947459082  0.1950781379018533  0.5186274652859928   T   T   T
  0.2492575497062219  0.4430328890313291  0.4610556955705079   F   F   F
  0.2734626604416733  0.8509382382757945  0.5693896079684762   T   T   T
  0.2036681492717136  0.6855731693326916  0.4868887178860462   F   F   F
  0.1471234534025641  0.4760698765562736  0.4925449251270066   F   F   F
  0.2244868273485180  0.4227009604035320  0.5565918141370068   T   T   T
  0.9114169782388899  0.4527445980703959  0.4737188145108959   F   F   F
  0.8697881760712605  0.7045601104075629  0.4641535209108483   F   F   F
  0.7381202077648155  0.0928346184210156  0.4452296472671975   F   F   F
  0.2221834364137223  0.9297811896885051  0.4079468165165281   F   F   F
  0.2550155768401727  0.4025736145542592  0.6482835863992048   T   T   T
  0.6304475775347209  0.8834498928458007  0.5933600326777392   T   T   T
  0.4102232652989244  0.7890623918912638  0.4234373851432949   F   F   F
  0.9177713526838360  0.1960382935517870  0.5082451459005242   F   F   F
  0.1325470583719763  0.4435361137187215  0.3322726622007863   F   F   F
  0.1551476808383612  0.3035232550984901  0.3105604161752922   F   F   F
  0.3730051452223293  0.1309070431484400  0.3479534200993726   F   F   F
  0.0345717900852409  0.2920537278086538  0.6334518990046841   T   T   T
  0.5726892607312024  0.2568681912710389  0.3200996781806822   F   F   F
  0.2464124371309263  0.7702761164486901  0.6501558486564258   T   T   T
  0.2073742988503469  0.6484050495897407  0.3103690611938177   F   F   F
  0.2753744117323080  0.3921912989361900  0.3673758273212613   F   F   F
  0.3653508124399352  0.5975866320683707  0.3422207943191111   F   F   F
  0.2263808501748272  0.0561808239321806  0.3581188824802055   F   F   F
  0.2412033349838580  0.1960782275144553  0.3293429668079639   F   F   F
  0.5012729261245497  0.8923016217637851  0.4548416832162587   F   F   F
  0.5500576566576296  0.8279438876016749  0.5343737280148659   T   T   T
  0.5449656419666039  0.6457265524937197  0.6335578986770004   T   T   T
  0.4780442846322969  0.1245683718151315  0.5966681420292329   T   T   T
  0.2627285415927197  0.6952826806523538  0.5683279629410632   T   T   T
  0.4414579975433574  0.8505172803959251  0.5806427982428628   T   T   T
  0.7654081302828901  0.6170501221819981  0.6496386491877086   T   T   T
  0.8448926802775035  0.8319407249889881  0.6230089390024975   T   T   T
  0.6403022335077543  0.7398841904290436  0.6212964938020659   T   T   T
  0.0081541848108957  0.0334679622483730  0.6029823333193579   T   T   T
  0.2837366407677281  0.0038802325223282  0.5932698539426583   T   T   T
  0.5022943492839926  0.9739013085470931  0.6286898544699285   T   T   T
  0.4326894134432297  0.4574218475144726  0.7316680396224040   T   T   T
  0.0832252792112911  0.6064203006159019  0.4064130837160320   F   F   F
  0.4093581121566323  0.7682747816430525  0.5737004710654020   T   T   T
  0.8417638189206400  0.4414531150138714  0.4678389696388976   F   F   F
  0.0170894936360568  0.9904820387337452  0.3936113541928137   F   F   F
  0.0147002065988957  0.2841902735343993  0.3910814136036507   F   F   F
  0.0092602862207397  0.1150933278608448  0.5725251364263632   T   T   T
  0.6096960433047697  0.6581691883396107  0.6107100109865077   T   T   T
  0.2139965740396371  0.4761213672526673  0.5096800941780598   T   T   T
  0.9150621277607272  0.7555609372428762  0.4962545438487922   F   F   F
  0.5205785424525260  0.1104556259083296  0.4259865881079392   F   F   F
  0.4180323986404736  0.1713554241767971  0.5895279021640218   T   T   T
  0.0834525281222085  0.1391720768766334  0.4069808717903314   F   F   F
  0.7018979344879455  0.0448462543081121  0.4873230277072054   F   F   F
  0.6650593546056740  0.8980374632893202  0.4374764361266443   F   F   F
  0.6500987439622605  0.5040270568778311  0.4301508871204760   F   F   F
  0.1984606475206618  0.9124822312100775  0.4639906909803457   F   F   F
  0.2154653451642378  0.3670515633041999  0.6037541613793950   T   T   T
  0.6737350535946769  0.8139315110430779  0.5947025055808001   T   T   T
  0.2169344474655935  0.6420006347548958  0.5386096294208315   T   T   T
  0.3687891183512946  0.7351277331247985  0.4592092972079129   F   F   F
  0.7975427630435917  0.8887546541982755  0.5956746856505737   T   T   T
  0.8798471763593779  0.9123148648702880  0.5119873942981225   T   T   T
  0.5772862040320732  0.5754449888536926  0.5124854831431370   T   T   T
  0.5898772316497124  0.1156309204997841  0.5251965162223036   T   T   T
  0.8581223411646519  0.1521132321647087  0.4951759473310489   F   F   F
  0.8353728441443937  0.6038136671772313  0.6459278269542251   T   T   T
  0.1337385207486648  0.3603189034452470  0.3568722791356791   F   F   F
  0.7906552882913616  0.2799392454557648  0.4418726542293072   F   F   F
  0.3991760967689615  0.1774948437530099  0.3960031981861079   F   F   F
  0.8560511612841787  0.7503392160341910  0.5965469719244816   T   T   T
  0.2830324231173213  0.9357242679753465  0.5497279124275862   T   T   T
  0.0230747322536402  0.3304475144031116  0.5022455100715746   F   F   F
  0.5745593847912573  0.6954900807820579  0.4355643604055430   F   F   F
  0.2302409542041772  0.7526004963776103  0.4519695445397645   F   F   F
  0.5937970074984085  0.2838932538790290  0.5481162440822425   T   T   T
  0.9751499273587463  0.2723319778336122  0.6026497850595182   T   T   T
  0.8889063590224922  0.0254089987032842  0.4242001869335610   F   F   F
  0.1046768985349566  0.1955050140208381  0.5177607917488325   T   T   T
  0.0481456608521569  0.7330370932417907  0.4826301941714348   F   F   F
  0.2319424142750378  0.2060135184003366  0.5610205003016120   T   T   T
  0.5614078070497825  0.2577852695391769  0.3812261074005363   F   F   F
  0.4761779499020481  0.6309635866970459  0.6201080637114688   T   T   T
  0.2821235362589146  0.7709151262368830  0.5978118204597767   T   T   T
  0.2085008252580423  0.6433998443080498  0.3717945352858223   F   F   F
  0.7405070007287701  0.7110922523442652  0.5358383896534026   T   T   T
  0.9866087109768504  0.9906568808915124  0.5503661546344502   T   T   T
  0.7031045577904180  0.7368181529665634  0.4342603982179796   F   F   F
  0.7878864928170755  0.0595390462640225  0.5767781448347327   T   T   T
  0.4563138979678243  0.3284515948311224  0.4092878915485585   F   F   F
  0.4485169957397663  0.9389203386853381  0.5942417933758010   T   T   T
  0.5079674366577485  0.0433684736966282  0.5864572689045471   T   T   T
  0.2442471516429308  0.3704063236853941  0.4209471039025985   F   F   F
  0.6585253436744694  0.3300021106527140  0.4503479098948588   F   F   F
  0.4605467377316784  0.3190640809183824  0.5290007622791579   T   T   T
  0.3372993678081997  0.5899425415699397  0.3990830096962270   F   F   F
  0.8030757218087566  0.4763214632371252  0.5799998734004876   T   T   T
  0.0692097893475037  0.8988591555082337  0.4805055068825652   F   F   F
  0.2119075788177369  0.1444543211161857  0.3735965933534686   F   F   F
  0.0782328565913559  0.4939849948658406  0.4946876202126234   F   F   F
  0.5575701889191933  0.8523400984338849  0.4747302534090920   F   F   F
  0.7184582711641661  0.5849930386716246  0.6095281942406521   T   T   T
  0.2866421241915660  0.2101017383532309  0.4591107728955208   F   F   F
  0.0884303610777935  0.6256032694272532  0.5676671212669946   T   T   T
  0.3526699078379971  0.0215870902780300  0.5780928814905417   T   T   T
  0.4869070532187687  0.4820811027190264  0.5738734335636193   T   T   T
  0.4792078445063046  0.5052682859765565  0.6941063998226092   T   T   T

  0.00000000E+00  0.00000000E+00  0.00000000E+00
  0.00000000E+00  0.00000000E+00  0.00000000E+00
  0.00000000E+00  0.00000000E+00  0.00000000E+00
  0.00000000E+00  0.00000000E+00  0.00000000E+00
  0.00000000E+00  0.00000000E+00  0.00000000E+00
  0.00000000E+00  0.00000000E+00  0.00000000E+00
  0.00000000E+00  0.00000000E+00  0.00000000E+00
  0.00000000E+00  0.00000000E+00  0.00000000E+00
  0.00000000E+00  0.00000000E+00  0.00000000E+00
  0.00000000E+00  0.00000000E+00  0.00000000E+00
  0.00000000E+00  0.00000000E+00  0.00000000E+00
  0.00000000E+00  0.00000000E+00  0.00000000E+00
  0.00000000E+00  0.00000000E+00  0.00000000E+00
  0.00000000E+00  0.00000000E+00  0.00000000E+00
  0.00000000E+00  0.00000000E+00  0.00000000E+00
  0.00000000E+00  0.00000000E+00  0.00000000E+00
  0.00000000E+00  0.00000000E+00  0.00000000E+00
  0.00000000E+00  0.00000000E+00  0.00000000E+00
  0.00000000E+00  0.00000000E+00  0.00000000E+00
  0.00000000E+00  0.00000000E+00  0.00000000E+00
  0.00000000E+00  0.00000000E+00  0.00000000E+00
  0.00000000E+00  0.00000000E+00  0.00000000E+00
  0.00000000E+00  0.00000000E+00  0.00000000E+00
  0.00000000E+00  0.00000000E+00  0.00000000E+00
  0.00000000E+00  0.00000000E+00  0.00000000E+00
  0.00000000E+00  0.00000000E+00  0.00000000E+00
  0.00000000E+00  0.00000000E+00  0.00000000E+00
  0.00000000E+00  0.00000000E+00  0.00000000E+00
  0.00000000E+00  0.00000000E+00  0.00000000E+00
  0.00000000E+00  0.00000000E+00  0.00000000E+00
  0.00000000E+00  0.00000000E+00  0.00000000E+00
  0.00000000E+00  0.00000000E+00  0.00000000E+00
  0.00000000E+00  0.00000000E+00  0.00000000E+00
  0.00000000E+00  0.00000000E+00  0.00000000E+00
  0.00000000E+00  0.00000000E+00  0.00000000E+00
  0.00000000E+00  0.00000000E+00  0.00000000E+00
  0.00000000E+00  0.00000000E+00  0.00000000E+00
  0.00000000E+00  0.00000000E+00  0.00000000E+00
  0.00000000E+00  0.00000000E+00  0.00000000E+00
  0.00000000E+00  0.00000000E+00  0.00000000E+00
  0.00000000E+00  0.00000000E+00  0.00000000E+00
  0.00000000E+00  0.00000000E+00  0.00000000E+00
  0.00000000E+00  0.00000000E+00  0.00000000E+00
  0.00000000E+00  0.00000000E+00  0.00000000E+00
  0.00000000E+00  0.00000000E+00  0.00000000E+00
  0.00000000E+00  0.00000000E+00  0.00000000E+00
  0.00000000E+00  0.00000000E+00  0.00000000E+00
  0.00000000E+00  0.00000000E+00  0.00000000E+00
  0.00000000E+00  0.00000000E+00  0.00000000E+00
  0.00000000E+00  0.00000000E+00  0.00000000E+00
  0.00000000E+00  0.00000000E+00  0.00000000E+00
  0.00000000E+00  0.00000000E+00  0.00000000E+00
  0.00000000E+00  0.00000000E+00  0.00000000E+00
  0.00000000E+00  0.00000000E+00  0.00000000E+00
  0.00000000E+00  0.00000000E+00  0.00000000E+00
  0.00000000E+00  0.00000000E+00  0.00000000E+00
  0.00000000E+00  0.00000000E+00  0.00000000E+00
  0.00000000E+00  0.00000000E+00  0.00000000E+00
  0.00000000E+00  0.00000000E+00  0.00000000E+00
  0.00000000E+00  0.00000000E+00  0.00000000E+00
  0.00000000E+00  0.00000000E+00  0.00000000E+00
  0.00000000E+00  0.00000000E+00  0.00000000E+00
  0.00000000E+00  0.00000000E+00  0.00000000E+00
  0.00000000E+00  0.00000000E+00  0.00000000E+00
  0.00000000E+00  0.00000000E+00  0.00000000E+00
  0.00000000E+00  0.00000000E+00  0.00000000E+00
  0.00000000E+00  0.00000000E+00  0.00000000E+00
  0.00000000E+00  0.00000000E+00  0.00000000E+00
  0.00000000E+00  0.00000000E+00  0.00000000E+00
  0.00000000E+00  0.00000000E+00  0.00000000E+00
  0.00000000E+00  0.00000000E+00  0.00000000E+00
  0.00000000E+00  0.00000000E+00  0.00000000E+00
  0.00000000E+00  0.00000000E+00  0.00000000E+00
  0.00000000E+00  0.00000000E+00  0.00000000E+00
  0.00000000E+00  0.00000000E+00  0.00000000E+00
  0.00000000E+00  0.00000000E+00  0.00000000E+00
  0.00000000E+00  0.00000000E+00  0.00000000E+00
  0.00000000E+00  0.00000000E+00  0.00000000E+00
  0.00000000E+00  0.00000000E+00  0.00000000E+00
  0.00000000E+00  0.00000000E+00  0.00000000E+00
  0.00000000E+00  0.00000000E+00  0.00000000E+00
  0.00000000E+00  0.00000000E+00  0.00000000E+00
  0.00000000E+00  0.00000000E+00  0.00000000E+00
  0.00000000E+00  0.00000000E+00  0.00000000E+00
  0.00000000E+00  0.00000000E+00  0.00000000E+00
  0.00000000E+00  0.00000000E+00  0.00000000E+00
  0.00000000E+00  0.00000000E+00  0.00000000E+00
  0.00000000E+00  0.00000000E+00  0.00000000E+00
  0.00000000E+00  0.00000000E+00  0.00000000E+00
  0.00000000E+00  0.00000000E+00  0.00000000E+00
  0.00000000E+00  0.00000000E+00  0.00000000E+00
  0.00000000E+00  0.00000000E+00  0.00000000E+00
  0.00000000E+00  0.00000000E+00  0.00000000E+00
  0.00000000E+00  0.00000000E+00  0.00000000E+00
  0.00000000E+00  0.00000000E+00  0.00000000E+00
  0.00000000E+00  0.00000000E+00  0.00000000E+00
  0.00000000E+00  0.00000000E+00  0.00000000E+00
  0.00000000E+00  0.00000000E+00  0.00000000E+00
  0.00000000E+00  0.00000000E+00  0.00000000E+00
  0.00000000E+00  0.00000000E+00  0.00000000E+00
  0.00000000E+00  0.00000000E+00  0.00000000E+00
  0.00000000E+00  0.00000000E+00  0.00000000E+00
  0.00000000E+00  0.00000000E+00  0.00000000E+00
  0.00000000E+00  0.00000000E+00  0.00000000E+00
  0.00000000E+00  0.00000000E+00  0.00000000E+00
  0.00000000E+00  0.00000000E+00  0.00000000E+00
  0.00000000E+00  0.00000000E+00  0.00000000E+00
  0.00000000E+00  0.00000000E+00  0.00000000E+00
  0.00000000E+00  0.00000000E+00  0.00000000E+00
  0.00000000E+00  0.00000000E+00  0.00000000E+00
  0.00000000E+00  0.00000000E+00  0.00000000E+00
  0.00000000E+00  0.00000000E+00  0.00000000E+00
  0.00000000E+00  0.00000000E+00  0.00000000E+00
  0.00000000E+00  0.00000000E+00  0.00000000E+00
  0.00000000E+00  0.00000000E+00  0.00000000E+00
  0.00000000E+00  0.00000000E+00  0.00000000E+00
  0.00000000E+00  0.00000000E+00  0.00000000E+00
  0.00000000E+00  0.00000000E+00  0.00000000E+00
  0.00000000E+00  0.00000000E+00  0.00000000E+00
  0.00000000E+00  0.00000000E+00  0.00000000E+00
  0.00000000E+00  0.00000000E+00  0.00000000E+00
  0.00000000E+00  0.00000000E+00  0.00000000E+00
  0.00000000E+00  0.00000000E+00  0.00000000E+00
  0.00000000E+00  0.00000000E+00  0.00000000E+00
  0.00000000E+00  0.00000000E+00  0.00000000E+00
  0.00000000E+00  0.00000000E+00  0.00000000E+00
  0.00000000E+00  0.00000000E+00  0.00000000E+00
  0.00000000E+00  0.00000000E+00  0.00000000E+00
  0.00000000E+00  0.00000000E+00  0.00000000E+00
  0.00000000E+00  0.00000000E+00  0.00000000E+00
  0.00000000E+00  0.00000000E+00  0.00000000E+00
  0.00000000E+00  0.00000000E+00  0.00000000E+00
  0.00000000E+00  0.00000000E+00  0.00000000E+00
  0.00000000E+00  0.00000000E+00  0.00000000E+00
  0.00000000E+00  0.00000000E+00  0.00000000E+00
  0.00000000E+00  0.00000000E+00  0.00000000E+00
  0.00000000E+00  0.00000000E+00  0.00000000E+00
  0.00000000E+00  0.00000000E+00  0.00000000E+00
  0.00000000E+00  0.00000000E+00  0.00000000E+00
  0.00000000E+00  0.00000000E+00  0.00000000E+00
  0.00000000E+00  0.00000000E+00  0.00000000E+00
  0.00000000E+00  0.00000000E+00  0.00000000E+00
  0.00000000E+00  0.00000000E+00  0.00000000E+00
  0.00000000E+00  0.00000000E+00  0.00000000E+00
  0.00000000E+00  0.00000000E+00  0.00000000E+00
  0.00000000E+00  0.00000000E+00  0.00000000E+00
  0.00000000E+00  0.00000000E+00  0.00000000E+00
  0.00000000E+00  0.00000000E+00  0.00000000E+00
  0.00000000E+00  0.00000000E+00  0.00000000E+00
  0.00000000E+00  0.00000000E+00  0.00000000E+00
  0.00000000E+00  0.00000000E+00  0.00000000E+00
  0.00000000E+00  0.00000000E+00  0.00000000E+00
  0.00000000E+00  0.00000000E+00  0.00000000E+00
  0.00000000E+00  0.00000000E+00  0.00000000E+00
  0.00000000E+00  0.00000000E+00  0.00000000E+00
  0.00000000E+00  0.00000000E+00  0.00000000E+00
  0.00000000E+00  0.00000000E+00  0.00000000E+00
  0.00000000E+00  0.00000000E+00  0.00000000E+00
  0.00000000E+00  0.00000000E+00  0.00000000E+00
  0.00000000E+00  0.00000000E+00  0.00000000E+00
  0.00000000E+00  0.00000000E+00  0.00000000E+00
  0.00000000E+00  0.00000000E+00  0.00000000E+00
  0.00000000E+00  0.00000000E+00  0.00000000E+00
  0.00000000E+00  0.00000000E+00  0.00000000E+00
  0.00000000E+00  0.00000000E+00  0.00000000E+00
  0.00000000E+00  0.00000000E+00  0.00000000E+00
  0.00000000E+00  0.00000000E+00  0.00000000E+00
  0.00000000E+00  0.00000000E+00  0.00000000E+00
  0.00000000E+00  0.00000000E+00  0.00000000E+00
  0.00000000E+00  0.00000000E+00  0.00000000E+00
  0.00000000E+00  0.00000000E+00  0.00000000E+00
  0.00000000E+00  0.00000000E+00  0.00000000E+00
  0.00000000E+00  0.00000000E+00  0.00000000E+00
  0.00000000E+00  0.00000000E+00  0.00000000E+00
  0.00000000E+00  0.00000000E+00  0.00000000E+00
  0.00000000E+00  0.00000000E+00  0.00000000E+00
  0.00000000E+00  0.00000000E+00  0.00000000E+00
  0.00000000E+00  0.00000000E+00  0.00000000E+00
  0.00000000E+00  0.00000000E+00  0.00000000E+00
  0.00000000E+00  0.00000000E+00  0.00000000E+00
  0.00000000E+00  0.00000000E+00  0.00000000E+00
  0.00000000E+00  0.00000000E+00  0.00000000E+00
  0.00000000E+00  0.00000000E+00  0.00000000E+00
  0.00000000E+00  0.00000000E+00  0.00000000E+00
  0.00000000E+00  0.00000000E+00  0.00000000E+00
  0.00000000E+00  0.00000000E+00  0.00000000E+00
  0.00000000E+00  0.00000000E+00  0.00000000E+00
  0.00000000E+00  0.00000000E+00  0.00000000E+00
  0.00000000E+00  0.00000000E+00  0.00000000E+00
  0.00000000E+00  0.00000000E+00  0.00000000E+00
  0.00000000E+00  0.00000000E+00  0.00000000E+00
  0.00000000E+00  0.00000000E+00  0.00000000E+00
  0.00000000E+00  0.00000000E+00  0.00000000E+00