 C  H  O Si  W                          
   1.0000000000000000     
    23.4112945954000011    0.0000000000000000    0.0000000000000000
     0.0000000000000000   18.1212369513999967    0.0000000000000000
     0.0000000000000000    0.0000000000000000   26.8833665072999999
   C    H    O    Si   W 
     4    52   155    65     1
Selective dynamics
Direct
  0.5077557027398854  0.6049077717133002  0.7653220123462674   T   T   T
  0.5510465496121384  0.5434442072463028  0.7759060617857543   T   T   T
  0.5313984202109339  0.6835959497786490  0.7631126153381302   T   T   T
  0.5331325997224070  0.4825023119908849  0.8116329025233711   T   T   T
  0.7616093966153912  0.1591616857905862  0.6509971530278449   F   F   F
  0.9264276758305172  0.3338528335634763  0.3563349293400009   F   F   F
  0.7933396966457948  0.2624627679642231  0.3734565163880745   F   F   F
  0.9745391126846457  0.9987924712778380  0.3253027906056829   F   F   F
  0.6257326647317640  0.0186567207143042  0.3752311999972449   F   F   F
  0.8205383985802470  0.0501905343183395  0.3689926296547128   F   F   F
  0.7499930738025071  0.1963626265714211  0.4580381926778543   F   F   F
  0.9155179381943270  0.3046177788731583  0.5099024656297004   F   F   F
  0.5834928632346532  0.3594474169544384  0.3059271726651787   F   F   F
  0.8917683683424187  0.3903285323717540  0.6160839912148361   F   F   F
  0.5927792155310456  0.4153661920625353  0.6152976250759679   F   F   F
  0.5933166088167283  0.9259908736017550  0.5780118196690225   F   F   F
  0.0336873354998133  0.3931603031084805  0.6523547388397120   F   F   F
  0.9352705076293475  0.4746980964748886  0.4541014552468710   F   F   F
  0.7461383787264921  0.5854958631552094  0.4224881911837883   F   F   F
  0.7993748323673699  0.4389752831080003  0.6355327485950326   F   F   F
  0.5911020173621253  0.6238666974456564  0.3780347436188976   F   F   F
  0.7184337867332147  0.7011166565380904  0.3834605945055571   F   F   F
  0.8411529141822527  0.5976104667934052  0.4195961671555111   F   F   F
  0.0047645486004839  0.6589820199540810  0.3577783004107076   F   F   F
  0.8283586992797254  0.7675405441362813  0.4679422553080954   F   F   F
  0.8740155361691961  0.6524862949458026  0.7226344144942516   F   F   F
  0.5199903139142066  0.0407486322859967  0.4217030704774842   F   F   F
  0.2230945721141921  0.0353387059182282  0.3932050219465495   F   F   F
  0.2163736907012108  0.2930353287273704  0.3192303272980936   F   F   F
  0.1575010503146004  0.3849901007315637  0.2789829167401123   F   F   F
  0.3415468765222016  0.2107695762735986  0.3307727584112428   F   F   F
  0.2227158616176865  0.1009427967475887  0.3227384335196248   F   F   F
  0.5111638699093248  0.8809845475320657  0.5467370335479771   F   F   F
  0.3761278567802364  0.2958558723125080  0.6471484670320748   F   F   F
  0.2444503853033879  0.1483541975615807  0.5982011673340679   F   F   F
  0.3153809712620799  0.5423203352981290  0.4424346656312608   F   F   F
  0.4089561836824345  0.4939187294114902  0.4056905975982730   F   F   F
  0.3984995031771135  0.8482974783745334  0.3887867966224334   F   F   F
  0.2442023570718419  0.7106139495022248  0.2943268807443218   F   F   F
  0.3117413815096768  0.4736595842612701  0.3692576443915385   F   F   F
  0.4054742948373828  0.6394635241886633  0.3388198885480591   F   F   F
  0.1393576205410270  0.5431575173040102  0.3519294596467617   F   F   F
  0.5932693450847850  0.7531709991489066  0.3523979868156601   F   F   F
  0.4690068300988983  0.9166113399624649  0.4438283837725479   F   F   F
  0.1218123786580563  0.3787921200586197  0.6120348630676347   F   F   F
  0.0731610078494356  0.7193034626232162  0.6462278854326300   F   F   F
  0.2428382714297612  0.4420909286056798  0.6824162701678347   F   F   F
  0.2462046707545582  0.8711863351731708  0.6699031004295293   F   F   F
  0.4690372382444181  0.6014748880729570  0.7884117445754839   T   T   T
  0.5939929323866266  0.5649258303174634  0.7839216341038693   T   T   T
  0.5390502758468614  0.7061426548875005  0.8006831611197143   T   T   T
  0.5720150425071751  0.6856139542160946  0.7425537344818949   T   T   T
  0.5010501010089286  0.7203115037378041  0.7440968898409821   T   T   T
  0.5394388126090064  0.5002930858160965  0.8504139330166467   T   T   T
  0.4879200103976018  0.4679966457337201  0.8063657343801651   T   T   T
  0.5593615328598958  0.4332370775818148  0.8048786965575516   T   T   T
  0.3689417337474836  0.7035389681450610  0.4390000177989322   F   F   F
  0.3468156499340012  0.5592177386719257  0.4203881275781143   F   F   F
  0.8610776555391908  0.6203744033351910  0.6961132648054047   F   F   F
  0.3489629838223181  0.0126159479529804  0.5305059856448082   F   F   F
  0.0331267219175757  0.9871735554335999  0.5285200426946233   F   F   F
  0.6363554822520214  0.1340524162845469  0.4893766723794641   F   F   F
  0.0686461464337711  0.1074492921990995  0.3951107345583225   F   F   F
  0.4518995423849290  0.1847461955537995  0.4205972814427668   F   F   F
  0.8058841492391053  0.2688340504163946  0.4831666074103040   F   F   F
  0.9737103109141572  0.2369687394374935  0.5984851811880816   F   F   F
  0.2747652928370670  0.3543567417346694  0.4485122250900346   F   F   F
  0.5563541661493261  0.8302751619026552  0.4417510122690658   F   F   F
  0.3918220088475195  0.0268242327688029  0.6194738156782265   F   F   F
  0.1775172398119551  0.4051523200535598  0.4052731245300478   F   F   F
  0.8663328296705473  0.7393636151040752  0.6373281098256385   F   F   F
  0.8656960101805780  0.0223608028020834  0.4670384592975196   F   F   F
  0.3010471365425786  0.8161207055988271  0.4579252567998537   F   F   F
  0.4216109455749333  0.3164360877394188  0.3795963030273342   F   F   F
  0.8109555754725903  0.5204486917095252  0.5199973673822171   F   F   F
  0.9835138969072403  0.1271192412900177  0.5210967342740958   F   F   F
  0.5127715210194737  0.5213343605789689  0.6271173660447005   F   F   F
  0.0345364060712328  0.9751316323765025  0.4294052572495062   F   F   F
  0.9630365418976012  0.3583791786684998  0.3512576249606170   F   F   F
  0.0696266904018330  0.3912896362547826  0.3763717815531962   F   F   F
  0.2082956574839798  0.7838281649202017  0.3953601014000157   F   F   F
  0.0389012628664673  0.4742857863042289  0.4991087535393461   F   F   F
  0.2389937010097896  0.3413920630570288  0.5877788926535317   F   F   F
  0.3970222164359001  0.2498948003610479  0.6442218774177633   F   F   F
  0.4548016205343970  0.6191936275469914  0.5781856986902909   F   F   F
  0.9098733748154544  0.8042051597445052  0.5575480149645173   F   F   F
  0.8691272712828919  0.1632272130833528  0.4422783307318099   F   F   F
  0.5725767945286506  0.7225157235907389  0.3761317316733468   F   F   F
  0.1424265590487721  0.2143093695378226  0.3759722435750490   F   F   F
  0.3499413920457570  0.8220759457838298  0.6066928683062898   F   F   F
  0.9109960497481637  0.9002314421499662  0.4831796236075121   F   F   F
  0.0613380104439898  0.5920555765577120  0.4422534820284341   F   F   F
  0.7083390276613883  0.6103504225712086  0.4199576800001736   F   F   F
  0.0754872572295611  0.8719906756188252  0.4829941554854784   F   F   F
  0.7004647711503367  0.8827395857358553  0.4326352913293690   F   F   F
  0.7302466759438957  0.1040308576227673  0.5429270861175652   F   F   F
  0.9189686473041476  0.3570946285493406  0.6320084942916750   F   F   F
  0.7349828898095012  0.9068313579796268  0.6129215218576860   F   F   F
  0.6251219543397468  0.5825778727861319  0.4863787091564404   F   F   F
  0.5565732986914895  0.6848869111079736  0.4672494240254110   F   F   F
  0.4258026103208223  0.3018060586006825  0.5549943592496618   F   F   F
  0.9782900937866188  0.7834275043295662  0.4767956400891720   F   F   F
  0.6537753458850020  0.6494094375695596  0.6335747024504244   F   F   F
  0.3968598190014276  0.8011297705546596  0.5155408856885515   F   F   F
  0.6026900684925138  0.5728493224960616  0.3856709925442061   F   F   F
  0.7193626876024908  0.6862391972967217  0.5571397926008288   F   F   F
  0.1465260049961117  0.4205011602865198  0.6193962468742527   F   F   F
  0.0659161128426931  0.6033603659558082  0.5420273721462934   F   F   F
  0.8183961957247163  0.9395793189307469  0.5363324761458443   F   F   F
  0.8282155306144290  0.4105690134483453  0.4519033357708793   F   F   F
  0.5276017984040990  0.3537710035723123  0.5324320885366447   F   F   F
  0.7366197617443220  0.5543769253227779  0.5951143717177843   F   F   F
  0.5574339360525684  0.2276149759015951  0.3949085375269945   F   F   F
  0.8059640829434258  0.3115964411945882  0.3832928600033014   F   F   F
  0.2374462167159379  0.0084346211966633  0.5079195554207132   F   F   F
  0.6925157161738653  0.8311374984159627  0.5413226728330756   F   F   F
  0.9233561669822947  0.0048594609068928  0.5530051896027501   F   F   F
  0.5257372223071499  0.3729649903053627  0.3985559351687087   F   F   F
  0.4682050299728289  0.0450673563151724  0.5462154555281771   F   F   F
  0.8379308880543164  0.1497427211985212  0.5396577701759142   F   F   F
  0.5379032529954273  0.1716013600362842  0.4862370923690094   F   F   F
  0.3501934424681892  0.2417926031567887  0.4396363938456389   F   F   F
  0.0117603227697671  0.0175977706243415  0.3352437574830063   F   F   F
  0.4557088562722669  0.6386918942807256  0.6726353563049585   F   F   F
  0.6549652215052149  0.9805813750328554  0.3792282539811964   F   F   F
  0.0762933429000086  0.7412101281288273  0.4358810225764742   F   F   F
  0.4527067439870152  0.4597420685199580  0.5528339755409490   F   F   F
  0.7192194365794862  0.7556047220685045  0.3795829994963285   F   F   F
  0.4492361232969202  0.7586057559899686  0.6016693859643780   F   F   F
  0.7525510590585540  0.7645084461262286  0.4762954835743187   F   F   F
  0.7797927440851993  0.1759120626595205  0.6206300519251684   F   F   F
  0.9932746154998640  0.3631973441466201  0.4484029789284989   F   F   F
  0.5334931190870762  0.5619330553637027  0.5293567903719563   F   F   F
  0.8167775851685377  0.5542456051944100  0.4234422052650615   F   F   F
  0.2365912892439468  0.2003574114633437  0.6049680550851591   F   F   F
  0.2035333056693176  0.8858851868034208  0.4705336293601903   F   F   F
  0.2399430998584009  0.6142931827857439  0.5223892070259879   F   F   F
  0.0609145925129155  0.6804245624500567  0.6239054738748635   F   F   F
  0.0460740721579711  0.6575305629000923  0.3541786312221902   F   F   F
  0.8002124388847633  0.0333098706513368  0.6055623502579479   F   F   F
  0.5379909096643800  0.0828813625045655  0.4045027517534763   F   F   F
  0.6067880077384800  0.3672811442614119  0.6050863958855075   F   F   F
  0.8615461074870723  0.0592647202164116  0.3692063291070653   F   F   F
  0.0949113079349573  0.2042067061274295  0.4670823258906296   F   F   F
  0.1715647337555382  0.2589637225291668  0.5306263134210312   F   F   F
  0.6409886548370807  0.7596225909587559  0.4548155821771758   F   F   F
  0.4367877833594562  0.4649523516246035  0.3864132536704119   F   F   F
  0.5741114343000291  0.1129526045094238  0.5708921647011991   F   F   F
  0.1514377461550822  0.6485918942245306  0.3889583608347777   F   F   F
  0.2677397900298786  0.6575214021457612  0.3923062966030031   F   F   F
  0.4402584599838875  0.3773820530375929  0.4703244327181508   F   F   F
  0.2380096658428670  0.2136950000811524  0.4299011866524154   F   F   F
  0.0729044911191536  0.2042111603583692  0.5621522755005870   F   F   F
  0.8447340478470977  0.6000088507760353  0.5993069900162951   F   F   F
  0.6211794283797261  0.3351237473240403  0.4109054511829981   F   F   F
  0.6026669933268991  0.9467105365549955  0.4672234595428861   F   F   F
  0.0313853911711632  0.2504736998458270  0.3889918752683101   F   F   F
  0.6072144159861850  0.2504834520598109  0.5475531688698183   F   F   F
  0.1327997262830110  0.9935385153003651  0.4794870772378772   F   F   F
  0.0798575379626243  0.3351524895524847  0.5121193602702121   F   F   F
  0.3725493558378759  0.1593501151255765  0.5684866686120031   F   F   F
  0.0662101373008213  0.7515531188053401  0.5355808205242170   F   F   F
  0.6664883802395920  0.4705687483238421  0.4300115561107631   F   F   F
  0.7991924383929856  0.7842970284131567  0.5643549834829003   F   F   F
  0.7038385585664102  0.0123923040575136  0.4701845621740759   F   F   F
  0.5972710358576165  0.6883454993451963  0.5532584822408424   F   F   F
  0.7228402998194312  0.3488685248393963  0.4516681052539582   F   F   F
  0.9770952383881735  0.3696431142204162  0.5470236664890464   F   F   F
  0.1578623578150911  0.6847976403834011  0.5703943191589715   F   F   F
  0.6333338447636834  0.3819669500246405  0.5078007023299378   F   F   F
  0.8202315301018999  0.4524367078584035  0.6056806986068395   F   F   F
  0.9585781980424741  0.0824269151275914  0.4169530046787955   F   F   F
  0.2821390686846357  0.2507473744609499  0.5185507219762755   F   F   F
  0.2492575497062219  0.4982167599051550  0.4610556955705079   F   F   F
  0.2719227539679423  0.9048113328951004  0.5680405120175394   F   F   F
  0.2036681492717136  0.7407570402065176  0.4868887178860462   F   F   F
  0.1471234534025641  0.5312537474300996  0.4925449251270066   F   F   F
  0.2248923085366883  0.4784233048576141  0.5567636604079595   F   F   F
  0.9114169782388899  0.5079284689442218  0.4737188145108959   F   F   F
  0.8697881760712605  0.7597439812813889  0.4641535209108483   F   F   F
  0.7381202077648155  0.1480184892948415  0.4452296472671975   F   F   F
  0.2221834364137223  0.9849650605623310  0.4079468165165281   F   F   F
  0.2522745819065833  0.4579415849744493  0.6490003763072636   F   F   F
  0.6303591451372768  0.9381105348613943  0.5934303664037586   F   F   F
  0.4102232652989244  0.8442462627650897  0.4234373851432949   F   F   F
  0.9177713526838360  0.2512221644256130  0.5082451459005242   F   F   F
  0.1325470583719763  0.4987199845925474  0.3322726622007863   F   F   F
  0.1551476808383612  0.3587071259723160  0.3105604161752922   F   F   F
  0.3730051452223293  0.1860909140222660  0.3479534200993726   F   F   F
  0.0347009741436750  0.3479105972788332  0.6330499773508862   F   F   F
  0.5726892607312024  0.3120520621448648  0.3200996781806822   F   F   F
  0.2444538323260517  0.8267758341825271  0.6498620855848358   F   F   F
  0.2073742988503469  0.7035889204635666  0.3103690611938177   F   F   F
  0.2753744117323080  0.4473751698100159  0.3673758273212613   F   F   F
  0.3653508124399352  0.6527705029421966  0.3422207943191111   F   F   F
  0.2263808501748272  0.1113646948060065  0.3581188824802055   F   F   F
  0.2412033349838580  0.2512620983882812  0.3293429668079639   F   F   F
  0.5012729261245497  0.9474854926376111  0.4548416832162587   F   F   F
  0.5501056346831845  0.8828191836617520  0.5342579568918637   F   F   F
  0.5442250894210687  0.7015037160090003  0.6342994606852557   F   F   F
  0.4785053967023813  0.1772183701255301  0.5959346675474251   F   F   F
  0.2618593955344153  0.7497421688126877  0.5689896762715136   F   F   F
  0.4430546510167659  0.9015961574193412  0.5817586130483789   F   F   F
  0.7653657305463497  0.6719594184189006  0.6495301582588553   F   F   F
  0.8448631260223323  0.8869691052737068  0.6226253254263696   F   F   F
  0.6392755917813986  0.7943886057772787  0.6206892312981225   F   F   F
  0.0078110226765844  0.0882959701727373  0.6030324537592477   F   F   F
  0.2846725641144303  0.0573724386126813  0.5934030629275284   F   F   F
  0.5032925210144157  0.0269984099962315  0.6286563826899609   F   F   F
  0.5581963025600132  0.5084241739515463  0.7234356017478660   T   T   T
  0.4353044372224986  0.4909516697215750  0.7170194758728954   T   T   T
  0.0832252792112911  0.6616041714897278  0.4064130837160320   F   F   F
  0.4088946154281956  0.8202422344129019  0.5750553604725681   F   F   F
  0.8417638189206400  0.4966369858876973  0.4678389696388976   F   F   F
  0.0170894936360568  0.0456659096075711  0.3936113541928137   F   F   F
  0.0147002065988957  0.3393741444082252  0.3910814136036507   F   F   F
  0.0092088230067517  0.1697869722281311  0.5723338859996190   F   F   F
  0.6088485725738479  0.7123153251689160  0.6109584358853084   F   F   F
  0.2140055340876899  0.5313391345192429  0.5096923387322292   F   F   F
  0.9150621277607272  0.8107448081167021  0.4962545438487922   F   F   F
  0.5205785424525260  0.1656394967821555  0.4259865881079392   F   F   F
  0.4185240473454073  0.2244173717494107  0.5888928386292278   F   F   F
  0.0834525281222085  0.1943559477504593  0.4069808717903314   F   F   F
  0.7018979344879455  0.1000301251819380  0.4873230277072054   F   F   F
  0.6650593546056740  0.9532213341631461  0.4374764361266443   F   F   F
  0.6500987439622605  0.5592109277516570  0.4301508871204760   F   F   F
  0.1984606475206618  0.9676661020839035  0.4639906909803457   F   F   F
  0.2142446784942251  0.4223836199842523  0.6035397819665107   F   F   F
  0.6732801978024909  0.8682195126046821  0.5945746588453815   F   F   F
  0.2164196168110948  0.6968842284765699  0.5386431511851129   F   F   F
  0.3687891183512946  0.7903116039986244  0.4592092972079129   F   F   F
  0.7970721828518350  0.9431543715165702  0.5954722542935329   F   F   F
  0.8794729189221471  0.9672532353921497  0.5119869643745147   F   F   F
  0.5760941752164968  0.6293600216982753  0.5117008357468293   F   F   F
  0.5897877298619179  0.1704091186691628  0.5252836900149589   F   F   F
  0.8581223411646519  0.2072971030385347  0.4951759473310489   F   F   F
  0.8353786830898855  0.6588360219875042  0.6457889483796748   F   F   F
  0.1337385207486648  0.4155027743190729  0.3568722791356791   F   F   F
  0.7906552882913616  0.3351231163295907  0.4418726542293072   F   F   F
  0.3991760967689615  0.2326787146268359  0.3960031981861079   F   F   F
  0.8559736349783194  0.8051597280515281  0.5964980558226642   F   F   F
  0.2829828844636992  0.9897145958925506  0.5495627455793652   F   F   F
  0.0230747322536402  0.3856313852769375  0.5022455100715746   F   F   F
  0.5745593847912573  0.7506739516558838  0.4355643604055430   F   F   F
  0.2302409542041772  0.8077843672514362  0.4519695445397645   F   F   F
  0.5938524026565091  0.3391539493976552  0.5483579253800528   F   F   F
  0.9752879818896503  0.3277574366022620  0.6024973277867858   F   F   F
  0.8889063590224922  0.0805928695771101  0.4242001869335610   F   F   F
  0.1047388326863938  0.2503733563533288  0.5178500402311741   F   F   F
  0.0481456608521569  0.7882209641156166  0.4826301941714348   F   F   F
  0.2320153798607123  0.2612516527102287  0.5609629987376294   F   F   F
  0.5614078070497825  0.3129691404130028  0.3812261074005363   F   F   F
  0.4763707284977414  0.6804658103735477  0.6210659083963108   F   F   F
  0.2807941862044672  0.8261229079040220  0.5978371996069995   F   F   F
  0.2085008252580423  0.6985837151818757  0.3717945352858223   F   F   F
  0.7402727350290803  0.7657458938413839  0.5358952241470476   F   F   F
  0.9862689463853940  0.0452772914825061  0.5504889611726682   F   F   F
  0.7031045577904180  0.7920020238403893  0.4342603982179796   F   F   F
  0.7880971091129894  0.1142273626844954  0.5766519008856719   F   F   F
  0.4563138979678243  0.3836354657049483  0.4092878915485585   F   F   F
  0.4497560469624986  0.9905645570538013  0.5945433393738355   F   F   F
  0.5084328819397044  0.0959076324341410  0.5860263999436128   F   F   F
  0.2442471516429308  0.4255901945592200  0.4209471039025985   F   F   F
  0.6585253436744694  0.3851859815265399  0.4503479098948588   F   F   F
  0.4603898265853488  0.3733007908659900  0.5289341243026087   F   F   F
  0.3372993678081997  0.6451264124437657  0.3990830096962270   F   F   F
  0.8031356583621019  0.5320259608624625  0.5796355966482523   F   F   F
  0.0692097893475037  0.9540430263820596  0.4805055068825652   F   F   F
  0.2119075788177369  0.1996381919900116  0.3735965933534686   F   F   F
  0.0782328565913559  0.5491688657396665  0.4946876202126234   F   F   F
  0.5575701889191933  0.9075239693077108  0.4747302534090920   F   F   F
  0.7180716032661110  0.6398002268777532  0.6097154170596113   F   F   F
  0.2866421241915660  0.2652856092270568  0.4591107728955208   F   F   F
  0.0877090774520966  0.6803616052899528  0.5677803882433494   F   F   F
  0.3537164319029813  0.0737233326915003  0.5781755537793885   F   F   F
  0.4862827286588285  0.5368141347372557  0.5708681835903349   F   F   F
  0.4898331495746575  0.5462982065180882  0.6953193146122481   T   T   T

  0.00000000E+00  0.00000000E+00  0.00000000E+00
  0.00000000E+00  0.00000000E+00  0.00000000E+00
  0.00000000E+00  0.00000000E+00  0.00000000E+00
  0.00000000E+00  0.00000000E+00  0.00000000E+00
  0.00000000E+00  0.00000000E+00  0.00000000E+00
  0.00000000E+00  0.00000000E+00  0.00000000E+00
  0.00000000E+00  0.00000000E+00  0.00000000E+00
  0.00000000E+00  0.00000000E+00  0.00000000E+00
  0.00000000E+00  0.00000000E+00  0.00000000E+00
  0.00000000E+00  0.00000000E+00  0.00000000E+00
  0.00000000E+00  0.00000000E+00  0.00000000E+00
  0.00000000E+00  0.00000000E+00  0.00000000E+00
  0.00000000E+00  0.00000000E+00  0.00000000E+00
  0.00000000E+00  0.00000000E+00  0.00000000E+00
  0.00000000E+00  0.00000000E+00  0.00000000E+00
  0.00000000E+00  0.00000000E+00  0.00000000E+00
  0.00000000E+00  0.00000000E+00  0.00000000E+00
  0.00000000E+00  0.00000000E+00  0.00000000E+00
  0.00000000E+00  0.00000000E+00  0.00000000E+00
  0.00000000E+00  0.00000000E+00  0.00000000E+00
  0.00000000E+00  0.00000000E+00  0.00000000E+00
  0.00000000E+00  0.00000000E+00  0.00000000E+00
  0.00000000E+00  0.00000000E+00  0.00000000E+00
  0.00000000E+00  0.00000000E+00  0.00000000E+00
  0.00000000E+00  0.00000000E+00  0.00000000E+00
  0.00000000E+00  0.00000000E+00  0.00000000E+00
  0.00000000E+00  0.00000000E+00  0.00000000E+00
  0.00000000E+00  0.00000000E+00  0.00000000E+00
  0.00000000E+00  0.00000000E+00  0.00000000E+00
  0.00000000E+00  0.00000000E+00  0.00000000E+00
  0.00000000E+00  0.00000000E+00  0.00000000E+00
  0.00000000E+00  0.00000000E+00  0.00000000E+00
  0.00000000E+00  0.00000000E+00  0.00000000E+00
  0.00000000E+00  0.00000000E+00  0.00000000E+00
  0.00000000E+00  0.00000000E+00  0.00000000E+00
  0.00000000E+00  0.00000000E+00  0.00000000E+00
  0.00000000E+00  0.00000000E+00  0.00000000E+00
  0.00000000E+00  0.00000000E+00  0.00000000E+00
  0.00000000E+00  0.00000000E+00  0.00000000E+00
  0.00000000E+00  0.00000000E+00  0.00000000E+00
  0.00000000E+00  0.00000000E+00  0.00000000E+00
  0.00000000E+00  0.00000000E+00  0.00000000E+00
  0.00000000E+00  0.00000000E+00  0.00000000E+00
  0.00000000E+00  0.00000000E+00  0.00000000E+00
  0.00000000E+00  0.00000000E+00  0.00000000E+00
  0.00000000E+00  0.00000000E+00  0.00000000E+00
  0.00000000E+00  0.00000000E+00  0.00000000E+00
  0.00000000E+00  0.00000000E+00  0.00000000E+00
  0.00000000E+00  0.00000000E+00  0.00000000E+00
  0.00000000E+00  0.00000000E+00  0.00000000E+00
  0.00000000E+00  0.00000000E+00  0.00000000E+00
  0.00000000E+00  0.00000000E+00  0.00000000E+00
  0.00000000E+00  0.00000000E+00  0.00000000E+00
  0.00000000E+00  0.00000000E+00  0.00000000E+00
  0.00000000E+00  0.00000000E+00  0.00000000E+00
  0.00000000E+00  0.00000000E+00  0.00000000E+00
  0.00000000E+00  0.00000000E+00  0.00000000E+00
  0.00000000E+00  0.00000000E+00  0.00000000E+00
  0.00000000E+00  0.00000000E+00  0.00000000E+00
  0.00000000E+00  0.00000000E+00  0.00000000E+00
  0.00000000E+00  0.00000000E+00  0.00000000E+00
  0.00000000E+00  0.00000000E+00  0.00000000E+00
  0.00000000E+00  0.00000000E+00  0.00000000E+00
  0.00000000E+00  0.00000000E+00  0.00000000E+00
  0.00000000E+00  0.00000000E+00  0.00000000E+00
  0.00000000E+00  0.00000000E+00  0.00000000E+00
  0.00000000E+00  0.00000000E+00  0.00000000E+00
  0.00000000E+00  0.00000000E+00  0.00000000E+00
  0.00000000E+00  0.00000000E+00  0.00000000E+00
  0.00000000E+00  0.00000000E+00  0.00000000E+00
  0.00000000E+00  0.00000000E+00  0.00000000E+00
  0.00000000E+00  0.00000000E+00  0.00000000E+00
  0.00000000E+00  0.00000000E+00  0.00000000E+00
  0.00000000E+00  0.00000000E+00  0.00000000E+00
  0.00000000E+00  0.00000000E+00  0.00000000E+00
  0.00000000E+00  0.00000000E+00  0.00000000E+00
  0.00000000E+00  0.00000000E+00  0.00000000E+00
  0.00000000E+00  0.00000000E+00  0.00000000E+00
  0.00000000E+00  0.00000000E+00  0.00000000E+00
  0.00000000E+00  0.00000000E+00  0.00000000E+00
  0.00000000E+00  0.00000000E+00  0.00000000E+00
  0.00000000E+00  0.00000000E+00  0.00000000E+00
  0.00000000E+00  0.00000000E+00  0.00000000E+00
  0.00000000E+00  0.00000000E+00  0.00000000E+00
  0.00000000E+00  0.00000000E+00  0.00000000E+00
  0.00000000E+00  0.00000000E+00  0.00000000E+00
  0.00000000E+00  0.00000000E+00  0.00000000E+00
  0.00000000E+00  0.00000000E+00  0.00000000E+00
  0.00000000E+00  0.00000000E+00  0.00000000E+00
  0.00000000E+00  0.00000000E+00  0.00000000E+00
  0.00000000E+00  0.00000000E+00  0.00000000E+00
  0.00000000E+00  0.00000000E+00  0.00000000E+00
  0.00000000E+00  0.00000000E+00  0.00000000E+00
  0.00000000E+00  0.00000000E+00  0.00000000E+00
  0.00000000E+00  0.00000000E+00  0.00000000E+00
  0.00000000E+00  0.00000000E+00  0.00000000E+00
  0.00000000E+00  0.00000000E+00  0.00000000E+00
  0.00000000E+00  0.00000000E+00  0.00000000E+00
  0.00000000E+00  0.00000000E+00  0.00000000E+00
  0.00000000E+00  0.00000000E+00  0.00000000E+00
  0.00000000E+00  0.00000000E+00  0.00000000E+00
  0.00000000E+00  0.00000000E+00  0.00000000E+00
  0.00000000E+00  0.00000000E+00  0.00000000E+00
  0.00000000E+00  0.00000000E+00  0.00000000E+00
  0.00000000E+00  0.00000000E+00  0.00000000E+00
  0.00000000E+00  0.00000000E+00  0.00000000E+00
  0.00000000E+00  0.00000000E+00  0.00000000E+00
  0.00000000E+00  0.00000000E+00  0.00000000E+00
  0.00000000E+00  0.00000000E+00  0.00000000E+00
  0.00000000E+00  0.00000000E+00  0.00000000E+00
  0.00000000E+00  0.00000000E+00  0.00000000E+00
  0.00000000E+00  0.00000000E+00  0.00000000E+00
  0.00000000E+00  0.00000000E+00  0.00000000E+00
  0.00000000E+00  0.00000000E+00  0.00000000E+00
  0.00000000E+00  0.00000000E+00  0.00000000E+00
  0.00000000E+00  0.00000000E+00  0.00000000E+00
  0.00000000E+00  0.00000000E+00  0.00000000E+00
  0.00000000E+00  0.00000000E+00  0.00000000E+00
  0.00000000E+00  0.00000000E+00  0.00000000E+00
  0.00000000E+00  0.00000000E+00  0.00000000E+00
  0.00000000E+00  0.00000000E+00  0.00000000E+00
  0.00000000E+00  0.00000000E+00  0.00000000E+00
  0.00000000E+00  0.00000000E+00  0.00000000E+00
  0.00000000E+00  0.00000000E+00  0.00000000E+00
  0.00000000E+00  0.00000000E+00  0.00000000E+00
  0.00000000E+00  0.00000000E+00  0.00000000E+00
  0.00000000E+00  0.00000000E+00  0.00000000E+00
  0.00000000E+00  0.00000000E+00  0.00000000E+00
  0.00000000E+00  0.00000000E+00  0.00000000E+00
  0.00000000E+00  0.00000000E+00  0.00000000E+00
  0.00000000E+00  0.00000000E+00  0.00000000E+00
  0.00000000E+00  0.00000000E+00  0.00000000E+00
  0.00000000E+00  0.00000000E+00  0.00000000E+00
  0.00000000E+00  0.00000000E+00  0.00000000E+00
  0.00000000E+00  0.00000000E+00  0.00000000E+00
  0.00000000E+00  0.00000000E+00  0.00000000E+00
  0.00000000E+00  0.00000000E+00  0.00000000E+00
  0.00000000E+00  0.00000000E+00  0.00000000E+00
  0.00000000E+00  0.00000000E+00  0.00000000E+00
  0.00000000E+00  0.00000000E+00  0.00000000E+00
  0.00000000E+00  0.00000000E+00  0.00000000E+00
  0.00000000E+00  0.00000000E+00  0.00000000E+00
  0.00000000E+00  0.00000000E+00  0.00000000E+00
  0.00000000E+00  0.00000000E+00  0.00000000E+00
  0.00000000E+00  0.00000000E+00  0.00000000E+00
  0.00000000E+00  0.00000000E+00  0.00000000E+00
  0.00000000E+00  0.00000000E+00  0.00000000E+00
  0.00000000E+00  0.00000000E+00  0.00000000E+00
  0.00000000E+00  0.00000000E+00  0.00000000E+00
  0.00000000E+00  0.00000000E+00  0.00000000E+00
  0.00000000E+00  0.00000000E+00  0.00000000E+00
  0.00000000E+00  0.00000000E+00  0.00000000E+00
  0.00000000E+00  0.00000000E+00  0.00000000E+00
  0.00000000E+00  0.00000000E+00  0.00000000E+00
  0.00000000E+00  0.00000000E+00  0.00000000E+00
  0.00000000E+00  0.00000000E+00  0.00000000E+00
  0.00000000E+00  0.00000000E+00  0.00000000E+00
  0.00000000E+00  0.00000000E+00  0.00000000E+00
  0.00000000E+00  0.00000000E+00  0.00000000E+00
  0.00000000E+00  0.00000000E+00  0.00000000E+00
  0.00000000E+00  0.00000000E+00  0.00000000E+00
  0.00000000E+00  0.00000000E+00  0.00000000E+00
  0.00000000E+00  0.00000000E+00  0.00000000E+00
  0.00000000E+00  0.00000000E+00  0.00000000E+00
  0.00000000E+00  0.00000000E+00  0.00000000E+00
  0.00000000E+00  0.00000000E+00  0.00000000E+00
  0.00000000E+00  0.00000000E+00  0.00000000E+00
  0.00000000E+00  0.00000000E+00  0.00000000E+00
  0.00000000E+00  0.00000000E+00  0.00000000E+00
  0.00000000E+00  0.00000000E+00  0.00000000E+00
  0.00000000E+00  0.00000000E+00  0.00000000E+00
  0.00000000E+00  0.00000000E+00  0.00000000E+00
  0.00000000E+00  0.00000000E+00  0.00000000E+00
  0.00000000E+00  0.00000000E+00  0.00000000E+00
  0.00000000E+00  0.00000000E+00  0.00000000E+00
  0.00000000E+00  0.00000000E+00  0.00000000E+00
  0.00000000E+00  0.00000000E+00  0.00000000E+00
  0.00000000E+00  0.00000000E+00  0.00000000E+00
  0.00000000E+00  0.00000000E+00  0.00000000E+00
  0.00000000E+00  0.00000000E+00  0.00000000E+00
  0.00000000E+00  0.00000000E+00  0.00000000E+00
  0.00000000E+00  0.00000000E+00  0.00000000E+00
  0.00000000E+00  0.00000000E+00  0.00000000E+00
  0.00000000E+00  0.00000000E+00  0.00000000E+00
  0.00000000E+00  0.00000000E+00  0.00000000E+00
  0.00000000E+00  0.00000000E+00  0.00000000E+00
  0.00000000E+00  0.00000000E+00  0.00000000E+00
  0.00000000E+00  0.00000000E+00  0.00000000E+00
  0.00000000E+00  0.00000000E+00  0.00000000E+00
  0.00000000E+00  0.00000000E+00  0.00000000E+00
  0.00000000E+00  0.00000000E+00  0.00000000E+00
  0.00000000E+00  0.00000000E+00  0.00000000E+00