C2H48O155Si65W1
1.0
     23.4112946       0.0000000       0.0000000
      0.0000000      18.1212370       0.0000000
      0.0000000       0.0000000      26.8833665
  C     H     O     Si    W   
  2     48   155    65    1   
Direct
      0.5680337       0.5488577       0.7697936
      0.5349629       0.4810656       0.7529440
      0.7605356       0.1037470       0.6509883
      0.9264277       0.2786690       0.3563349
      0.7933397       0.2072789       0.3734565
      0.9745391       0.9436086       0.3253028
      0.6257327       0.9634728       0.3752312
      0.8205384       0.9950067       0.3689926
      0.7499931       0.1411788       0.4580382
      0.9153501       0.2494443       0.5094701
      0.5834929       0.3042635       0.3059272
      0.8913632       0.3346640       0.6165899
      0.5895714       0.3585896       0.6163285
      0.5928972       0.8694695       0.5784525
      0.0340304       0.3378360       0.6519828
      0.9352705       0.4195142       0.4541015
      0.7461384       0.5303120       0.4224882
      0.7964807       0.3805651       0.6336244
      0.5911020       0.5686828       0.3780347
      0.7184338       0.6459328       0.3834606
      0.8411529       0.5424266       0.4195962
      0.0047645       0.6037981       0.3577783
      0.8283587       0.7123567       0.4679423
      0.8777552       0.5988269       0.7210041
      0.5199903       0.9855648       0.4217031
      0.2230946       0.9801548       0.3932050
      0.2163737       0.2378515       0.3192303
      0.1575011       0.3298062       0.2789829
      0.3415469       0.1555857       0.3307728
      0.2227159       0.0457589       0.3227384
      0.5110320       0.8249415       0.5464291
      0.3821030       0.2434202       0.6477350
      0.2441467       0.0929505       0.5984947
      0.3153810       0.4871365       0.4424347
      0.4089562       0.4387349       0.4056906
      0.3984995       0.7931136       0.3887868
      0.2442024       0.6554301       0.2943269
      0.3117414       0.4184757       0.3692576
      0.4054743       0.5842797       0.3388199
      0.1393576       0.4879736       0.3519295
      0.5932693       0.6979871       0.3523980
      0.4690068       0.8614275       0.4438284
      0.1219269       0.3227903       0.6116495
      0.0714598       0.6661554       0.6452215
      0.2440858       0.3842243       0.6822650
      0.2443492       0.8151488       0.6688579
      0.5818370       0.5825415       0.7379511
      0.5410990       0.5828045       0.7943430
      0.5196461       0.4450009       0.7831537
      0.6063337       0.5318882       0.7907826
      0.3689417       0.6483551       0.4390000
      0.3468156       0.5040339       0.4203881
      0.8607087       0.5660290       0.6967271
      0.3489801       0.9568766       0.5308640
      0.0333981       0.9325002       0.5285185
      0.6363555       0.0788685       0.4893767
      0.0686461       0.0522654       0.3951107
      0.4518995       0.1295623       0.4205973
      0.8058841       0.2136502       0.4831666
      0.9731477       0.1815181       0.5987818
      0.2747653       0.2991729       0.4485122
      0.5563542       0.7750913       0.4417510
      0.3926246       0.9701561       0.6197463
      0.1775172       0.3499684       0.4052731
      0.8665449       0.6839066       0.6372148
      0.8656960       0.9671769       0.4670385
      0.3010471       0.7609368       0.4579253
      0.4216109       0.2612522       0.3795963
      0.8112350       0.4652591       0.5201289
      0.9834991       0.0727527       0.5212404
      0.5179914       0.4575485       0.6236682
      0.0345364       0.9199478       0.4294053
      0.9630365       0.3031953       0.3512576
      0.0696267       0.3361058       0.3763718
      0.2082957       0.7286443       0.3953601
      0.0389013       0.4191019       0.4991088
      0.2396310       0.2857281       0.5879756
      0.3977398       0.1941481       0.6444270
      0.4557439       0.5603445       0.5817756
      0.9096857       0.7491474       0.5574820
      0.8691273       0.1080433       0.4422783
      0.5725768       0.6673319       0.3761317
      0.1424266       0.1591255       0.3759722
      0.3500252       0.7661375       0.6067286
      0.9109960       0.8450476       0.4831796
      0.0613380       0.5368717       0.4422535
      0.7083390       0.5551666       0.4199577
      0.0754873       0.8168068       0.4829942
      0.7004648       0.8275557       0.4326353
      0.7300483       0.0488924       0.5430352
      0.9189183       0.3016343       0.6322522
      0.7347514       0.8527056       0.6128270
      0.6251220       0.5273940       0.4863787
      0.5565733       0.6297030       0.4672494
      0.4260083       0.2450502       0.5549286
      0.9782901       0.7282436       0.4767956
      0.6541678       0.5935837       0.6334619
      0.3971730       0.7452943       0.5156070
      0.6026901       0.5176655       0.3856710
      0.7195403       0.6307000       0.5569744
      0.1468273       0.3639572       0.6199470
      0.0663154       0.5485420       0.5419481
      0.8188274       0.8845824       0.5366138
      0.8282155       0.3553851       0.4519033
      0.5274326       0.2987325       0.5326123
      0.7369544       0.4985966       0.5953417
      0.5574339       0.1724311       0.3949085
      0.8059641       0.2564126       0.3832929
      0.2374462       0.9532508       0.5079196
      0.6925978       0.7757457       0.5414431
      0.9238250       0.9497202       0.5529530
      0.5257372       0.3177811       0.3985559
      0.4687511       0.9886896       0.5461771
      0.8376065       0.0947671       0.5397419
      0.5379033       0.1164175       0.4862371
      0.3501934       0.1866087       0.4396364
      0.0117603       0.9624139       0.3352438
      0.4588020       0.5820450       0.6756583
      0.6549652       0.9253975       0.3792283
      0.0762933       0.6860263       0.4358810
      0.4511029       0.4033450       0.5523284
      0.7192194       0.7004209       0.3795830
      0.4480743       0.7007116       0.6025777
      0.7525511       0.7093246       0.4762955
      0.7786113       0.1210581       0.6207074
      0.9932746       0.3080135       0.4484030
      0.5317501       0.5065009       0.5274406
      0.8167776       0.4990617       0.4234422
      0.2357973       0.1447716       0.6053077
      0.2035333       0.8307013       0.4705336
      0.2399954       0.5586083       0.5228032
      0.0611591       0.6254420       0.6236595
      0.0460741       0.6023467       0.3541786
      0.8005548       0.9785831       0.6057430
      0.5379909       0.0276975       0.4045028
      0.6065941       0.3125359       0.6051243
      0.8615461       0.0040808       0.3692063
      0.0949113       0.1490228       0.4670823
      0.1714701       0.2040342       0.5309229
      0.6409887       0.7044387       0.4548156
      0.4367878       0.4097685       0.3864133
      0.5747020       0.0578792       0.5709669
      0.1514377       0.5934080       0.3889584
      0.2677398       0.6023375       0.3923063
      0.4402585       0.3221982       0.4703244
      0.2380097       0.1585111       0.4299012
      0.0727824       0.1501160       0.5625342
      0.8451136       0.5437891       0.5997655
      0.6211794       0.2799399       0.4109055
      0.6026670       0.8915267       0.4672235
      0.0313854       0.1952898       0.3889919
      0.6075717       0.1954905       0.5473502
      0.1327997       0.9383546       0.4794871
      0.0802583       0.2803405       0.5116053
      0.3729689       0.1027304       0.5692694
      0.0666606       0.6970180       0.5357099
      0.6664884       0.4153849       0.4300116
      0.7992444       0.7294461       0.5641240
      0.7038386       0.9572084       0.4701846
      0.5961024       0.6313387       0.5539757
      0.7228403       0.2936847       0.4516681
      0.9775493       0.3141479       0.5472659
      0.1583687       0.6299260       0.5705649
      0.6333338       0.3267831       0.5078007
      0.8199545       0.3960135       0.6057434
      0.9585782       0.0272430       0.4169530
      0.2821206       0.1950207       0.5186761
      0.2492575       0.4430329       0.4610557
      0.2713321       0.8493703       0.5686413
      0.2036681       0.6855732       0.4868887
      0.1471235       0.4760699       0.4925449
      0.2244570       0.4225336       0.5567525
      0.9114170       0.4527446       0.4737188
      0.8697882       0.7045601       0.4641535
      0.7381202       0.0928346       0.4452296
      0.2221834       0.9297812       0.4079468
      0.2520108       0.4027397       0.6491777
      0.6298286       0.8819470       0.5939952
      0.4102233       0.7890624       0.4234374
      0.9177714       0.1960383       0.5082451
      0.1325471       0.4435361       0.3322727
      0.1551477       0.3035233       0.3105604
      0.3730051       0.1309070       0.3479534
      0.0345886       0.2918607       0.6334568
      0.5726893       0.2568682       0.3200997
      0.2444947       0.7697899       0.6497162
      0.2073743       0.6484050       0.3103691
      0.2753744       0.3921913       0.3673758
      0.3653508       0.5975866       0.3422208
      0.2263809       0.0561808       0.3581189
      0.2412033       0.1960782       0.3293430
      0.5012729       0.8923016       0.4548417
      0.5500802       0.8271173       0.5342218
      0.5447635       0.6467559       0.6355746
      0.4788385       0.1203670       0.5960826
      0.2627849       0.6937470       0.5685491
      0.4438232       0.8446641       0.5818826
      0.7655631       0.6165496       0.6493160
      0.8445789       0.8315496       0.6229708
      0.6396589       0.7384258       0.6207276
      0.0081053       0.0333587       0.6029786
      0.2849800       0.0008828       0.5940274
      0.5043382       0.9700159       0.6283136
      0.5573162       0.4415261       0.7117043
      0.4302516       0.4229890       0.7028478
      0.0832253       0.6064203       0.4064131
      0.4089938       0.7637611       0.5752257
      0.8417638       0.4414531       0.4678390
      0.0170895       0.9904820       0.3936114
      0.0147002       0.2841903       0.3910814
      0.0092410       0.1150122       0.5725081
      0.6092374       0.6564586       0.6111736
      0.2139598       0.4757633       0.5097266
      0.9150621       0.7555609       0.4962545
      0.5205785       0.1104556       0.4259866
      0.4189933       0.1679221       0.5891286
      0.0834525       0.1391721       0.4069809
      0.7018979       0.0448463       0.4873230
      0.6650594       0.8980375       0.4374764
      0.6500987       0.5040271       0.4301509
      0.1984606       0.9124822       0.4639907
      0.2143784       0.3664936       0.6036145
      0.6734247       0.8128236       0.5946654
      0.2167055       0.6414110       0.5384663
      0.3687891       0.7351277       0.4592093
      0.7972299       0.8883606       0.5956009
      0.8797562       0.9122522       0.5119815
      0.5755866       0.5735734       0.5113324
      0.5898911       0.1154571       0.5252298
      0.8581223       0.1521132       0.4951759
      0.8355149       0.6033763       0.6457923
      0.1337385       0.3603189       0.3568723
      0.7906553       0.2799392       0.4418727
      0.3991761       0.1774948       0.3960032
      0.8559004       0.7499746       0.5965100
      0.2828251       0.9340683       0.5496606
      0.0230747       0.3304475       0.5022455
      0.5745594       0.6954901       0.4355644
      0.2302410       0.7526005       0.4519695
      0.5938357       0.2841886       0.5484950
      0.9751766       0.2722864       0.6027009
      0.8889064       0.0254090       0.4242002
      0.1047247       0.1954454       0.5177655
      0.0481457       0.7330371       0.4826302
      0.2320147       0.2056729       0.5610928
      0.5614078       0.2577853       0.3812261
      0.4774399       0.6243963       0.6224432
      0.2808310       0.7701930       0.5976581
      0.2085008       0.6433998       0.3717945
      0.7403229       0.7103550       0.5358251
      0.9865122       0.9905907       0.5503272
      0.7031046       0.7368182       0.4342604
      0.7878164       0.0594081       0.5767606
      0.4563139       0.3284516       0.4092879
      0.4504615       0.9340116       0.5944376
      0.5091832       0.0394612       0.5858979
      0.2442472       0.3704063       0.4209471
      0.6585253       0.3300021       0.4503479
      0.4600656       0.3168429       0.5287653
      0.3372994       0.5899425       0.3990830
      0.8034066       0.4759895       0.5798198
      0.0692098       0.8988592       0.4805055
      0.2119076       0.1444543       0.3735966
      0.0782329       0.4939850       0.4946876
      0.5575702       0.8523401       0.4747303
      0.7183799       0.5840470       0.6095180
      0.2866421       0.2101017       0.4591108
      0.0881631       0.6255209       0.5675957
      0.3539980       0.0171866       0.5788194
      0.4868823       0.4784942       0.5699679
      0.4848533       0.4830907       0.6887653
