 C  H  O Si  W                          
   1.0000000000000000     
    23.4112945954000011    0.0000000000000000    0.0000000000000000
     0.0000000000000000   18.1212369513999967    0.0000000000000000
     0.0000000000000000    0.0000000000000000   26.8833665072999999
   C    H    O    Si   W 
     4    52   155    65     1
Selective dynamics
Direct
  0.5102289963030344  0.6093731651486607  0.7681706024813693   T   T   T
  0.5370985613581709  0.5196824799697879  0.7641148184689044   T   T   T
  0.5424662250463967  0.6825616741586558  0.7610019439425173   T   T   T
  0.5255957134213887  0.4617488997636130  0.8039578295909777   T   T   T
  0.7621604834709785  0.1588984260597996  0.6510800842912374   F   F   F
  0.9264276758305172  0.3338528335634763  0.3563349293400009   F   F   F
  0.7933396966457948  0.2624627679642231  0.3734565163880745   F   F   F
  0.9745391126846457  0.9987924712778380  0.3253027906056829   F   F   F
  0.6257326647317640  0.0186567207143042  0.3752311999972449   F   F   F
  0.8205383985802470  0.0501905343183395  0.3689926296547128   F   F   F
  0.7499930738025071  0.1963626265714211  0.4580381926778543   F   F   F
  0.9154891724142757  0.3046205126916917  0.5098719378772785   F   F   F
  0.5834928632346532  0.3594474169544384  0.3059271726651787   F   F   F
  0.8922276940471221  0.3906517690678015  0.6164944903568212   F   F   F
  0.5896508095005046  0.4163978726901121  0.6137772309041765   F   F   F
  0.5931633470612780  0.9260933101670616  0.5779035667648245   F   F   F
  0.0340482202432213  0.3940227246437686  0.6515984421044720   F   F   F
  0.9352705076293475  0.4746980964748886  0.4541014552468710   F   F   F
  0.7461383787264921  0.5854958631552094  0.4224881911837883   F   F   F
  0.7991248725033842  0.4392023453149605  0.6353509394594781   F   F   F
  0.5911020173621253  0.6238666974456564  0.3780347436188976   F   F   F
  0.7184337867332147  0.7011166565380904  0.3834605945055571   F   F   F
  0.8411529141822527  0.5976104667934052  0.4195961671555111   F   F   F
  0.0047645486004839  0.6589820199540810  0.3577783004107076   F   F   F
  0.8283586992797254  0.7675405441362813  0.4679422553080954   F   F   F
  0.8758100671214777  0.6533193964018267  0.7214944984115519   F   F   F
  0.5199903139142066  0.0407486322859967  0.4217030704774842   F   F   F
  0.2230945721141921  0.0353387059182282  0.3932050219465495   F   F   F
  0.2163736907012108  0.2930353287273704  0.3192303272980936   F   F   F
  0.1575010503146004  0.3849901007315637  0.2789829167401123   F   F   F
  0.3415468765222016  0.2107695762736057  0.3307727584112428   F   F   F
  0.2227158616176865  0.1009427967475887  0.3227384335196248   F   F   F
  0.5113602750816142  0.8794159315224803  0.5466811865775369   F   F   F
  0.3851152036882439  0.3000487130458964  0.6475759760132576   F   F   F
  0.2448583060762175  0.1482532816896551  0.5977746885621400   F   F   F
  0.3153809712620799  0.5423203352981290  0.4424346656312608   F   F   F
  0.4089561836824345  0.4939187294114902  0.4056905975982730   F   F   F
  0.3984995031771135  0.8482974783745618  0.3887867966224334   F   F   F
  0.2442023570718419  0.7106139495022248  0.2943268807443218   F   F   F
  0.3117413815096768  0.4736595842612701  0.3692576443915385   F   F   F
  0.4054742948373828  0.6394635241886633  0.3388198885480591   F   F   F
  0.1393576205410270  0.5431575173040102  0.3519294596467617   F   F   F
  0.5932693450847850  0.7531709991489066  0.3523979868156601   F   F   F
  0.4690068300988983  0.9166113399624649  0.4438283837725479   F   F   F
  0.1214955412448688  0.3794401767138922  0.6115504512181005   F   F   F
  0.0723872616878154  0.7197621478950822  0.6458138515929406   F   F   F
  0.2438817284813126  0.4388349742843900  0.6823117838500536   F   F   F
  0.2446112717156765  0.8706518629970006  0.6693871607267639   F   F   F
  0.4763803981823713  0.6088116509591117  0.7963764955933144   T   T   T
  0.5514279159595290  0.5765934307719789  0.7910541677572382   T   T   T
  0.5512688793979592  0.7101110555526020  0.7966552256681823   T   T   T
  0.5150248311061105  0.7178907904462051  0.7379056714380923   T   T   T
  0.5827178467467391  0.6744527557799671  0.7406763858838161   T   T   T
  0.5191799201411555  0.4873661050889453  0.8405852356043226   T   T   T
  0.4871334821434345  0.4300273423467829  0.7942927495150514   T   T   T
  0.5624447260520498  0.4242817376575445  0.8059199773684966   T   T   T
  0.3689417337474836  0.7035389681450610  0.4390000177989322   F   F   F
  0.3468156499340012  0.5592177386719257  0.4203881275781143   F   F   F
  0.8606622163159656  0.6208248283421938  0.6961098229891292   F   F   F
  0.3488634949765341  0.0114173371416655  0.5307867138321285   F   F   F
  0.0331245151604236  0.9871738432147836  0.5285268417719706   F   F   F
  0.6363554822520214  0.1340524162845469  0.4893766723794641   F   F   F
  0.0686461464337711  0.1074492921990995  0.3951107345583225   F   F   F
  0.4518995423849290  0.1847461955537995  0.4205972814427668   F   F   F
  0.8058841492391053  0.2688340504163946  0.4831666074103040   F   F   F
  0.9740679910864714  0.2369968129512685  0.5984856061471788   F   F   F
  0.2747652928370670  0.3543567417346694  0.4485122250900346   F   F   F
  0.5563541661493261  0.8302751619026836  0.4417510122690658   F   F   F
  0.3919509552325593  0.0257544724737500  0.6198161472798418   F   F   F
  0.1775172398119551  0.4051523200535740  0.4052731245300478   F   F   F
  0.8657209589919646  0.7397838399022305  0.6374905780674212   F   F   F
  0.8656960101805780  0.0223608028020834  0.4670384592975196   F   F   F
  0.3010471365425786  0.8161207055988555  0.4579252567998537   F   F   F
  0.4216109455749333  0.3164360877394188  0.3795963030273342   F   F   F
  0.8107124192736705  0.5204002204678488  0.5199528257723713   F   F   F
  0.9834401578559948  0.1271392050192262  0.5211718635197187   F   F   F
  0.5149313037364109  0.5183769083350498  0.6297690539410183   F   F   F
  0.0345364060712328  0.9751316323765025  0.4294052572495062   F   F   F
  0.9630365418976012  0.3583791786684998  0.3512576249606170   F   F   F
  0.0696266904018330  0.3912896362547897  0.3763717815531962   F   F   F
  0.2082956574839798  0.7838281649202017  0.3953601014000157   F   F   F
  0.0389012628664673  0.4742857863042289  0.4991087535393461   F   F   F
  0.2383836790737064  0.3413660238637988  0.5880012894043887   F   F   F
  0.3965731152509235  0.2489653091944106  0.6437733905644762   F   F   F
  0.4548870253836981  0.6166623801585374  0.5802868663189997   F   F   F
  0.9094442046286204  0.8039153527029725  0.5574955723855624   F   F   F
  0.8691272712828919  0.1632272130833528  0.4422783307318099   F   F   F
  0.5725767945286506  0.7225157235907389  0.3761317316733468   F   F   F
  0.1424265590487721  0.2143093695378298  0.3759722435750490   F   F   F
  0.3494298411873871  0.8225843904245878  0.6067900356106151   F   F   F
  0.9109960497481637  0.9002314421499662  0.4831796236075121   F   F   F
  0.0613380104439898  0.5920555765577120  0.4422534820284341   F   F   F
  0.7083390276613883  0.6103504225712086  0.4199576800001736   F   F   F
  0.0754872572295611  0.8719906756188536  0.4829941554854784   F   F   F
  0.7004647711503367  0.8827395857358837  0.4326352913293690   F   F   F
  0.7304477566145380  0.1037858431614183  0.5429127886928029   F   F   F
  0.9191778168089257  0.3568071975734597  0.6321708115463451   F   F   F
  0.7348495568811160  0.9074374210880336  0.6129110808828102   F   F   F
  0.6251219543397468  0.5825778727861319  0.4863787091564404   F   F   F
  0.5565732986914895  0.6848869111079736  0.4672494240254110   F   F   F
  0.4263906979571033  0.3011078943370649  0.5551770140844141   F   F   F
  0.9782900937866188  0.7834275043295733  0.4767956400891720   F   F   F
  0.6535686609382907  0.6500287899627324  0.6334485833588914   F   F   F
  0.3965700794271854  0.8009304282198570  0.5156402083445144   F   F   F
  0.6026900684925138  0.5728493224960616  0.3856709925442061   F   F   F
  0.7196677065041754  0.6863007427937546  0.5570778865605561   F   F   F
  0.1460260684363277  0.4213822573304640  0.6187087439701102   F   F   F
  0.0655999359371293  0.6030938467290810  0.5421025471889251   F   F   F
  0.8184067336227301  0.9397527798616352  0.5363635146535799   F   F   F
  0.8282155306144290  0.4105690134483595  0.4519033357708793   F   F   F
  0.5279813743148623  0.3500245601460605  0.5299099473258195   F   F   F
  0.7363339717662569  0.5543581254988723  0.5950743923018038   F   F   F
  0.5574339360525684  0.2276149759015951  0.3949085375269945   F   F   F
  0.8059640829434258  0.3115964411945882  0.3832928600033014   F   F   F
  0.2374462167159379  0.0084346211966633  0.5079195554207132   F   F   F
  0.6923804603943680  0.8315257274294865  0.5412145650533731   F   F   F
  0.9234049827583064  0.0047597374520478  0.5530726846976464   F   F   F
  0.5257372223071499  0.3729649903053627  0.3985559351687087   F   F   F
  0.4679045580206918  0.0437618367808454  0.5462496680059701   F   F   F
  0.8380519001484998  0.1496149400047244  0.5396279382992120   F   F   F
  0.5379032529954273  0.1716013600362842  0.4862370923690094   F   F   F
  0.3501934424681892  0.2417926031567887  0.4396363938456389   F   F   F
  0.0117603227697671  0.0175977706243415  0.3352437574830063   F   F   F
  0.4591766070594048  0.6418379444141635  0.6758091135681639   F   F   F
  0.6549652215052149  0.9805813750328554  0.3792282539811964   F   F   F
  0.0762933429000086  0.7412101281288273  0.4358810225764742   F   F   F
  0.4555791341214928  0.4577087936399309  0.5542484521339830   F   F   F
  0.7192194365794862  0.7556047220685045  0.3795829994963285   F   F   F
  0.4477129557104504  0.7568971651562606  0.6020553904400501   F   F   F
  0.7525510590585540  0.7645084461262286  0.4762954835743187   F   F   F
  0.7799268503708063  0.1759515086142329  0.6206160854379377   F   F   F
  0.9932746154998640  0.3631973441466201  0.4484029789284989   F   F   F
  0.5350086427412677  0.5620911362859005  0.5318751475646621   F   F   F
  0.8167775851685377  0.5542456051944100  0.4234422052650615   F   F   F
  0.2364352399851768  0.2000368423850460  0.6047359335947462   F   F   F
  0.2035333056693176  0.8858851868034208  0.4705336293601903   F   F   F
  0.2400621085807586  0.6141817672370706  0.5222145933577096   F   F   F
  0.0608533885645812  0.6800674061562830  0.6238531363484014   F   F   F
  0.0460740721579711  0.6575305629000923  0.3541786312221902   F   F   F
  0.8004582206112119  0.0335074310008281  0.6057436358307910   F   F   F
  0.5379909096643800  0.0828813625045655  0.4045027517534763   F   F   F
  0.6044772050678091  0.3680863190811365  0.6047120912831545   F   F   F
  0.8615461074870723  0.0592647202164116  0.3692063291070653   F   F   F
  0.0949113079349573  0.2042067061274366  0.4670823258906296   F   F   F
  0.1717031078796296  0.2588747375627705  0.5303764709915626   F   F   F
  0.6409886548370807  0.7596225909587559  0.4548155821771758   F   F   F
  0.4367877833594562  0.4649523516246035  0.3864132536704119   F   F   F
  0.5741514445850413  0.1116636084392013  0.5704097508545374   F   F   F
  0.1514377461550822  0.6485918942245306  0.3889583608347777   F   F   F
  0.2677397900298786  0.6575214021457612  0.3923062966030031   F   F   F
  0.4402584599838875  0.3773820530375929  0.4703244327181508   F   F   F
  0.2380096658428670  0.2136950000811595  0.4299011866524154   F   F   F
  0.0732548435379172  0.2038040150997560  0.5621875233599312   F   F   F
  0.8443122680306701  0.6005840090377603  0.5990452113992504   F   F   F
  0.6211794283797261  0.3351237473240403  0.4109054511829981   F   F   F
  0.6026669933268991  0.9467105365549955  0.4672234595428861   F   F   F
  0.0313853911711632  0.2504736998458270  0.3889918752683101   F   F   F
  0.6079690941393281  0.2496413124485741  0.5484004214212703   F   F   F
  0.1327997262830110  0.9935385153003651  0.4794870772378772   F   F   F
  0.0797492573755036  0.3350045685183787  0.5122371159937913   F   F   F
  0.3726630249685670  0.1580144076445578  0.5687542250424400   F   F   F
  0.0659664364022987  0.7513896889374507  0.5356410766687532   F   F   F
  0.6664883802395920  0.4705687483238421  0.4300115561107631   F   F   F
  0.7987888587409486  0.7853301386476375  0.5643441285109319   F   F   F
  0.7038385585664102  0.0123923040575136  0.4701845621740759   F   F   F
  0.5983347241889732  0.6895398031934121  0.5526053223739638   F   F   F
  0.7228402998194312  0.3488685248393963  0.4516681052539582   F   F   F
  0.9770408945539089  0.3697965385175905  0.5470506139650055   F   F   F
  0.1577814931610177  0.6844311605787752  0.5701456816804580   F   F   F
  0.6333338447636834  0.3819669500246405  0.5078007023299378   F   F   F
  0.8207621561900993  0.4533248219990256  0.6060716103146788   F   F   F
  0.9585781980424741  0.0824269151275914  0.4169530046787955   F   F   F
  0.2823135663016885  0.2510006760672070  0.5186172201982941   F   F   F
  0.2492575497062219  0.4982167599051550  0.4610556955705079   F   F   F
  0.2708091551625031  0.9041768410892530  0.5680116580936243   F   F   F
  0.2036681492717136  0.7407570402065176  0.4868887178860462   F   F   F
  0.1471234534025641  0.5312537474300996  0.4925449251270066   F   F   F
  0.2251042096075224  0.4785785043973902  0.5568242208328726   F   F   F
  0.9114169782388899  0.5079284689442218  0.4737188145108959   F   F   F
  0.8697881760712605  0.7597439812813889  0.4641535209108483   F   F   F
  0.7381202077648155  0.1480184892948415  0.4452296472671975   F   F   F
  0.2221834364137223  0.9849650605623310  0.4079468165165281   F   F   F
  0.2515730714132687  0.4580774225934832  0.6493681091636887   F   F   F
  0.6301508426867883  0.9384932891046205  0.5933508753257684   F   F   F
  0.4102232652989244  0.8442462627651182  0.4234373851432949   F   F   F
  0.9177713526838360  0.2512221644256130  0.5082451459005242   F   F   F
  0.1325470583719763  0.4987199845925474  0.3322726622007863   F   F   F
  0.1551476808383612  0.3587071259723160  0.3105604161752922   F   F   F
  0.3730051452223293  0.1860909140222660  0.3479534200993726   F   F   F
  0.0348996187552189  0.3481338382039922  0.6329768563692824   F   F   F
  0.5726892607312024  0.3120520621448648  0.3200996781806822   F   F   F
  0.2437112989826957  0.8256926859982769  0.6498307719857905   F   F   F
  0.2073742988503469  0.7035889204635666  0.3103690611938177   F   F   F
  0.2753744117323080  0.4473751698100159  0.3673758273212613   F   F   F
  0.3653508124399352  0.6527705029421966  0.3422207943191111   F   F   F
  0.2263808501748272  0.1113646948060065  0.3581188824802055   F   F   F
  0.2412033349838580  0.2512620983882812  0.3293429668079639   F   F   F
  0.5012729261245497  0.9474854926376111  0.4548416832162587   F   F   F
  0.5502459959586687  0.8825013436550009  0.5341939475650861   F   F   F
  0.5443904446337555  0.7039850593297956  0.6333332826484437   F   F   F
  0.4786568741346784  0.1759763534542458  0.5953186667878185   F   F   F
  0.2619709125837062  0.7490074586250657  0.5690581178681100   F   F   F
  0.4434135649712658  0.9002046716920020  0.5822590235372260   F   F   F
  0.7648865632445094  0.6717614698427141  0.6496918122388067   F   F   F
  0.8448376168143028  0.8873474114205351  0.6227796823083906   F   F   F
  0.6398303521043687  0.7949875025775697  0.6209202825743532   F   F   F
  0.0079270186058054  0.0882798318481335  0.6030442493978398   F   F   F
  0.2846699618303816  0.0561428032308555  0.5937097661688497   F   F   F
  0.5036612644373548  0.0257692529540705  0.6285238700144617   F   F   F
  0.4330938494278556  0.4885117376300627  0.7121121481333859   T   T   T
  0.5697375271139862  0.5088189332811197  0.7227295707529606   T   T   T
  0.0832252792112911  0.6616041714897278  0.4064130837160320   F   F   F
  0.4085274024817451  0.8192764631951732  0.5753262330792666   F   F   F
  0.8417638189206400  0.4966369858876973  0.4678389696388976   F   F   F
  0.0170894936360568  0.0456659096075711  0.3936113541928137   F   F   F
  0.0147002065988957  0.3393741444082252  0.3910814136036507   F   F   F
  0.0094265900607269  0.1697220656454448  0.5723153353567341   F   F   F
  0.6088999781354332  0.7132250644486788  0.6104177057400264   F   F   F
  0.2140498049493260  0.5312880285142185  0.5096655878597147   F   F   F
  0.9150621277607272  0.8107448081167306  0.4962545438487922   F   F   F
  0.5205785424525260  0.1656394967821555  0.4259865881079392   F   F   F
  0.4187288105681546  0.2234603401242907  0.5885429653849812   F   F   F
  0.0834525281222085  0.1943559477504593  0.4069808717903314   F   F   F
  0.7018979344879455  0.1000301251819380  0.4873230277072054   F   F   F
  0.6650593546056740  0.9532213341631461  0.4374764361266443   F   F   F
  0.6500987439622605  0.5592109277516570  0.4301508871204760   F   F   F
  0.1984606475206618  0.9676661020839035  0.4639906909803457   F   F   F
  0.2139954396714643  0.4226061940177672  0.6035189887286947   F   F   F
  0.6732285966212146  0.8686952221352513  0.5944750179606189   F   F   F
  0.2164435908008144  0.6966056518377286  0.5385183343580380   F   F   F
  0.3687891183512946  0.7903116039986529  0.4592092972079129   F   F   F
  0.7970482094825826  0.9434178872033243  0.5954817973005149   F   F   F
  0.8794930326821557  0.9672825272942305  0.5119887606035292   F   F   F
  0.5762648923043940  0.6294302119001074  0.5120522972528576   F   F   F
  0.5897751636654434  0.1701724675766911  0.5253623921578097   F   F   F
  0.8581223411646519  0.2072971030385418  0.4951759473310489   F   F   F
  0.8348800349717109  0.6590907618757953  0.6456790944547421   F   F   F
  0.1337385207486648  0.4155027743190871  0.3568722791356791   F   F   F
  0.7906552882913616  0.3351231163295907  0.4418726542293072   F   F   F
  0.3991760967689615  0.2326787146268359  0.3960031981861079   F   F   F
  0.8556304376022794  0.8054856269543507  0.5965104962745116   F   F   F
  0.2827140101334891  0.9889315864599126  0.5496361137826042   F   F   F
  0.0230747322536402  0.3856313852769375  0.5022455100715746   F   F   F
  0.5745593847912573  0.7506739516558838  0.4355643604055430   F   F   F
  0.2302409542041772  0.8077843672514646  0.4519695445397645   F   F   F
  0.5937397428629723  0.3383272665601282  0.5479798242320513   F   F   F
  0.9754795876561886  0.3277910767423435  0.6024617896104374   F   F   F
  0.8889063590224922  0.0805928695771101  0.4242001869335610   F   F   F
  0.1048429204171484  0.2502695539932773  0.5178519741562653   F   F   F
  0.0481456608521569  0.7882209641156450  0.4826301941714348   F   F   F
  0.2320425205993715  0.2612938597971208  0.5609431131601355   F   F   F
  0.5614078070497825  0.3129691404130028  0.3812261074005363   F   F   F
  0.4762261971421395  0.6795643432035732  0.6220268979624990   F   F   F
  0.2803198368011124  0.8256294087541676  0.5978555238200087   F   F   F
  0.2085008252580423  0.6985837151818757  0.3717945352858223   F   F   F
  0.7400360999472824  0.7660125691463264  0.5358386338036851   F   F   F
  0.9862724414816313  0.0452655375971460  0.5505140894579057   F   F   F
  0.7031045577904180  0.7920020238404177  0.4342603982179796   F   F   F
  0.7882240179986368  0.1142224132051624  0.5766243967013409   F   F   F
  0.4563138979678243  0.3836354657049483  0.4092878915485585   F   F   F
  0.4498330483451056  0.9892772978497462  0.5947162084080233   F   F   F
  0.5085102885734543  0.0945971151710836  0.5856714284709028   F   F   F
  0.2442471516429308  0.4255901945592342  0.4209471039025985   F   F   F
  0.6585253436744694  0.3851859815265399  0.4503479098948588   F   F   F
  0.4612101226721634  0.3725262694346441  0.5288067390672708   F   F   F
  0.3372993678081997  0.6451264124437657  0.3990830096962270   F   F   F
  0.8028991868414437  0.5323068844544352  0.5795434826689032   F   F   F
  0.0692097893475037  0.9540430263820596  0.4805055068825652   F   F   F
  0.2119075788177369  0.1996381919900188  0.3735965933534686   F   F   F
  0.0782328565913559  0.5491688657396665  0.4946876202126234   F   F   F
  0.5575701889191933  0.9075239693077108  0.4747302534090920   F   F   F
  0.7177302137145958  0.6398432366980060  0.6096021531571694   F   F   F
  0.2866421241915660  0.2652856092270568  0.4591107728955208   F   F   F
  0.0876112292840006  0.6801082831471419  0.5676848150159728   F   F   F
  0.3537551879407133  0.0724251960005589  0.5784659766912696   F   F   F
  0.4883835312147582  0.5352618239642766  0.5739452005188497   F   F   F
  0.4908507537367370  0.5446175672937984  0.7001192979942837   T   T   T

  0.00000000E+00  0.00000000E+00  0.00000000E+00
  0.00000000E+00  0.00000000E+00  0.00000000E+00
  0.00000000E+00  0.00000000E+00  0.00000000E+00
  0.00000000E+00  0.00000000E+00  0.00000000E+00
  0.00000000E+00  0.00000000E+00  0.00000000E+00
  0.00000000E+00  0.00000000E+00  0.00000000E+00
  0.00000000E+00  0.00000000E+00  0.00000000E+00
  0.00000000E+00  0.00000000E+00  0.00000000E+00
  0.00000000E+00  0.00000000E+00  0.00000000E+00
  0.00000000E+00  0.00000000E+00  0.00000000E+00
  0.00000000E+00  0.00000000E+00  0.00000000E+00
  0.00000000E+00  0.00000000E+00  0.00000000E+00
  0.00000000E+00  0.00000000E+00  0.00000000E+00
  0.00000000E+00  0.00000000E+00  0.00000000E+00
  0.00000000E+00  0.00000000E+00  0.00000000E+00
  0.00000000E+00  0.00000000E+00  0.00000000E+00
  0.00000000E+00  0.00000000E+00  0.00000000E+00
  0.00000000E+00  0.00000000E+00  0.00000000E+00
  0.00000000E+00  0.00000000E+00  0.00000000E+00
  0.00000000E+00  0.00000000E+00  0.00000000E+00
  0.00000000E+00  0.00000000E+00  0.00000000E+00
  0.00000000E+00  0.00000000E+00  0.00000000E+00
  0.00000000E+00  0.00000000E+00  0.00000000E+00
  0.00000000E+00  0.00000000E+00  0.00000000E+00
  0.00000000E+00  0.00000000E+00  0.00000000E+00
  0.00000000E+00  0.00000000E+00  0.00000000E+00
  0.00000000E+00  0.00000000E+00  0.00000000E+00
  0.00000000E+00  0.00000000E+00  0.00000000E+00
  0.00000000E+00  0.00000000E+00  0.00000000E+00
  0.00000000E+00  0.00000000E+00  0.00000000E+00
  0.00000000E+00  0.00000000E+00  0.00000000E+00
  0.00000000E+00  0.00000000E+00  0.00000000E+00
  0.00000000E+00  0.00000000E+00  0.00000000E+00
  0.00000000E+00  0.00000000E+00  0.00000000E+00
  0.00000000E+00  0.00000000E+00  0.00000000E+00
  0.00000000E+00  0.00000000E+00  0.00000000E+00
  0.00000000E+00  0.00000000E+00  0.00000000E+00
  0.00000000E+00  0.00000000E+00  0.00000000E+00
  0.00000000E+00  0.00000000E+00  0.00000000E+00
  0.00000000E+00  0.00000000E+00  0.00000000E+00
  0.00000000E+00  0.00000000E+00  0.00000000E+00
  0.00000000E+00  0.00000000E+00  0.00000000E+00
  0.00000000E+00  0.00000000E+00  0.00000000E+00
  0.00000000E+00  0.00000000E+00  0.00000000E+00
  0.00000000E+00  0.00000000E+00  0.00000000E+00
  0.00000000E+00  0.00000000E+00  0.00000000E+00
  0.00000000E+00  0.00000000E+00  0.00000000E+00
  0.00000000E+00  0.00000000E+00  0.00000000E+00
  0.00000000E+00  0.00000000E+00  0.00000000E+00
  0.00000000E+00  0.00000000E+00  0.00000000E+00
  0.00000000E+00  0.00000000E+00  0.00000000E+00
  0.00000000E+00  0.00000000E+00  0.00000000E+00
  0.00000000E+00  0.00000000E+00  0.00000000E+00
  0.00000000E+00  0.00000000E+00  0.00000000E+00
  0.00000000E+00  0.00000000E+00  0.00000000E+00
  0.00000000E+00  0.00000000E+00  0.00000000E+00
  0.00000000E+00  0.00000000E+00  0.00000000E+00
  0.00000000E+00  0.00000000E+00  0.00000000E+00
  0.00000000E+00  0.00000000E+00  0.00000000E+00
  0.00000000E+00  0.00000000E+00  0.00000000E+00
  0.00000000E+00  0.00000000E+00  0.00000000E+00
  0.00000000E+00  0.00000000E+00  0.00000000E+00
  0.00000000E+00  0.00000000E+00  0.00000000E+00
  0.00000000E+00  0.00000000E+00  0.00000000E+00
  0.00000000E+00  0.00000000E+00  0.00000000E+00
  0.00000000E+00  0.00000000E+00  0.00000000E+00
  0.00000000E+00  0.00000000E+00  0.00000000E+00
  0.00000000E+00  0.00000000E+00  0.00000000E+00
  0.00000000E+00  0.00000000E+00  0.00000000E+00
  0.00000000E+00  0.00000000E+00  0.00000000E+00
  0.00000000E+00  0.00000000E+00  0.00000000E+00
  0.00000000E+00  0.00000000E+00  0.00000000E+00
  0.00000000E+00  0.00000000E+00  0.00000000E+00
  0.00000000E+00  0.00000000E+00  0.00000000E+00
  0.00000000E+00  0.00000000E+00  0.00000000E+00
  0.00000000E+00  0.00000000E+00  0.00000000E+00
  0.00000000E+00  0.00000000E+00  0.00000000E+00
  0.00000000E+00  0.00000000E+00  0.00000000E+00
  0.00000000E+00  0.00000000E+00  0.00000000E+00
  0.00000000E+00  0.00000000E+00  0.00000000E+00
  0.00000000E+00  0.00000000E+00  0.00000000E+00
  0.00000000E+00  0.00000000E+00  0.00000000E+00
  0.00000000E+00  0.00000000E+00  0.00000000E+00
  0.00000000E+00  0.00000000E+00  0.00000000E+00
  0.00000000E+00  0.00000000E+00  0.00000000E+00
  0.00000000E+00  0.00000000E+00  0.00000000E+00
  0.00000000E+00  0.00000000E+00  0.00000000E+00
  0.00000000E+00  0.00000000E+00  0.00000000E+00
  0.00000000E+00  0.00000000E+00  0.00000000E+00
  0.00000000E+00  0.00000000E+00  0.00000000E+00
  0.00000000E+00  0.00000000E+00  0.00000000E+00
  0.00000000E+00  0.00000000E+00  0.00000000E+00
  0.00000000E+00  0.00000000E+00  0.00000000E+00
  0.00000000E+00  0.00000000E+00  0.00000000E+00
  0.00000000E+00  0.00000000E+00  0.00000000E+00
  0.00000000E+00  0.00000000E+00  0.00000000E+00
  0.00000000E+00  0.00000000E+00  0.00000000E+00
  0.00000000E+00  0.00000000E+00  0.00000000E+00
  0.00000000E+00  0.00000000E+00  0.00000000E+00
  0.00000000E+00  0.00000000E+00  0.00000000E+00
  0.00000000E+00  0.00000000E+00  0.00000000E+00
  0.00000000E+00  0.00000000E+00  0.00000000E+00
  0.00000000E+00  0.00000000E+00  0.00000000E+00
  0.00000000E+00  0.00000000E+00  0.00000000E+00
  0.00000000E+00  0.00000000E+00  0.00000000E+00
  0.00000000E+00  0.00000000E+00  0.00000000E+00
  0.00000000E+00  0.00000000E+00  0.00000000E+00
  0.00000000E+00  0.00000000E+00  0.00000000E+00
  0.00000000E+00  0.00000000E+00  0.00000000E+00
  0.00000000E+00  0.00000000E+00  0.00000000E+00
  0.00000000E+00  0.00000000E+00  0.00000000E+00
  0.00000000E+00  0.00000000E+00  0.00000000E+00
  0.00000000E+00  0.00000000E+00  0.00000000E+00
  0.00000000E+00  0.00000000E+00  0.00000000E+00
  0.00000000E+00  0.00000000E+00  0.00000000E+00
  0.00000000E+00  0.00000000E+00  0.00000000E+00
  0.00000000E+00  0.00000000E+00  0.00000000E+00
  0.00000000E+00  0.00000000E+00  0.00000000E+00
  0.00000000E+00  0.00000000E+00  0.00000000E+00
  0.00000000E+00  0.00000000E+00  0.00000000E+00
  0.00000000E+00  0.00000000E+00  0.00000000E+00
  0.00000000E+00  0.00000000E+00  0.00000000E+00
  0.00000000E+00  0.00000000E+00  0.00000000E+00
  0.00000000E+00  0.00000000E+00  0.00000000E+00
  0.00000000E+00  0.00000000E+00  0.00000000E+00
  0.00000000E+00  0.00000000E+00  0.00000000E+00
  0.00000000E+00  0.00000000E+00  0.00000000E+00
  0.00000000E+00  0.00000000E+00  0.00000000E+00
  0.00000000E+00  0.00000000E+00  0.00000000E+00
  0.00000000E+00  0.00000000E+00  0.00000000E+00
  0.00000000E+00  0.00000000E+00  0.00000000E+00
  0.00000000E+00  0.00000000E+00  0.00000000E+00
  0.00000000E+00  0.00000000E+00  0.00000000E+00
  0.00000000E+00  0.00000000E+00  0.00000000E+00
  0.00000000E+00  0.00000000E+00  0.00000000E+00
  0.00000000E+00  0.00000000E+00  0.00000000E+00
  0.00000000E+00  0.00000000E+00  0.00000000E+00
  0.00000000E+00  0.00000000E+00  0.00000000E+00
  0.00000000E+00  0.00000000E+00  0.00000000E+00
  0.00000000E+00  0.00000000E+00  0.00000000E+00
  0.00000000E+00  0.00000000E+00  0.00000000E+00
  0.00000000E+00  0.00000000E+00  0.00000000E+00
  0.00000000E+00  0.00000000E+00  0.00000000E+00
  0.00000000E+00  0.00000000E+00  0.00000000E+00
  0.00000000E+00  0.00000000E+00  0.00000000E+00
  0.00000000E+00  0.00000000E+00  0.00000000E+00
  0.00000000E+00  0.00000000E+00  0.00000000E+00
  0.00000000E+00  0.00000000E+00  0.00000000E+00
  0.00000000E+00  0.00000000E+00  0.00000000E+00
  0.00000000E+00  0.00000000E+00  0.00000000E+00
  0.00000000E+00  0.00000000E+00  0.00000000E+00
  0.00000000E+00  0.00000000E+00  0.00000000E+00
  0.00000000E+00  0.00000000E+00  0.00000000E+00
  0.00000000E+00  0.00000000E+00  0.00000000E+00
  0.00000000E+00  0.00000000E+00  0.00000000E+00
  0.00000000E+00  0.00000000E+00  0.00000000E+00
  0.00000000E+00  0.00000000E+00  0.00000000E+00
  0.00000000E+00  0.00000000E+00  0.00000000E+00
  0.00000000E+00  0.00000000E+00  0.00000000E+00
  0.00000000E+00  0.00000000E+00  0.00000000E+00
  0.00000000E+00  0.00000000E+00  0.00000000E+00
  0.00000000E+00  0.00000000E+00  0.00000000E+00
  0.00000000E+00  0.00000000E+00  0.00000000E+00
  0.00000000E+00  0.00000000E+00  0.00000000E+00
  0.00000000E+00  0.00000000E+00  0.00000000E+00
  0.00000000E+00  0.00000000E+00  0.00000000E+00
  0.00000000E+00  0.00000000E+00  0.00000000E+00
  0.00000000E+00  0.00000000E+00  0.00000000E+00
  0.00000000E+00  0.00000000E+00  0.00000000E+00
  0.00000000E+00  0.00000000E+00  0.00000000E+00
  0.00000000E+00  0.00000000E+00  0.00000000E+00
  0.00000000E+00  0.00000000E+00  0.00000000E+00
  0.00000000E+00  0.00000000E+00  0.00000000E+00
  0.00000000E+00  0.00000000E+00  0.00000000E+00
  0.00000000E+00  0.00000000E+00  0.00000000E+00
  0.00000000E+00  0.00000000E+00  0.00000000E+00
  0.00000000E+00  0.00000000E+00  0.00000000E+00
  0.00000000E+00  0.00000000E+00  0.00000000E+00
  0.00000000E+00  0.00000000E+00  0.00000000E+00
  0.00000000E+00  0.00000000E+00  0.00000000E+00
  0.00000000E+00  0.00000000E+00  0.00000000E+00
  0.00000000E+00  0.00000000E+00  0.00000000E+00
  0.00000000E+00  0.00000000E+00  0.00000000E+00
  0.00000000E+00  0.00000000E+00  0.00000000E+00
  0.00000000E+00  0.00000000E+00  0.00000000E+00
  0.00000000E+00  0.00000000E+00  0.00000000E+00
  0.00000000E+00  0.00000000E+00  0.00000000E+00
  0.00000000E+00  0.00000000E+00  0.00000000E+00
  0.00000000E+00  0.00000000E+00  0.00000000E+00
  0.00000000E+00  0.00000000E+00  0.00000000E+00
  0.00000000E+00  0.00000000E+00  0.00000000E+00
  0.00000000E+00  0.00000000E+00  0.00000000E+00