 C  H  O Si  W                          
   1.0000000000000000     
    23.4112945954000011    0.0000000000000000    0.0000000000000000
     0.0000000000000000   18.1212369513999967    0.0000000000000000
     0.0000000000000000    0.0000000000000000   26.8833665072999999
   C    H    O    Si   W 
     4    52   154    65     1
Selective dynamics
Direct
  0.5436961254794546  0.5370449250577491  0.7257618173403977   T   T   T
  0.5215096045341658  0.5889636536365022  0.7657045181803591   T   T   T
  0.5636598459689572  0.4612290979743828  0.7442830592690581   T   T   T
  0.5320312506665508  0.6682894537938715  0.7654736002470585   T   T   T
  0.7616051526405909  0.1586264229972433  0.6509970458704643   T   T   T
  0.9264276758775409  0.3338528337127542  0.3563349293400009   F   F   F
  0.7933396966928186  0.2624627681135010  0.3734565163880745   F   F   F
  0.9745391127316694  0.9987924714271159  0.3253027906056829   F   F   F
  0.6257326647787878  0.0186567208635822  0.3752311999972449   F   F   F
  0.8205383986272707  0.0501905344676175  0.3689926296547128   F   F   F
  0.7499930738495308  0.1963626267206990  0.4580381926778543   F   F   F
  0.9155942120799260  0.3046510352435896  0.5093712188317847   T   T   T
  0.5834928632816769  0.3594474171037163  0.3059271726651787   F   F   F
  0.8915661330147638  0.3901475163068708  0.6159577434422062   T   T   T
  0.5834682374871425  0.4138714146200992  0.6140662046104032   T   T   T
  0.5934969413577015  0.9257088366612067  0.5780817172027599   T   T   T
  0.0338388703479523  0.3942182544734436  0.6514310796621805   T   T   T
  0.9352705076763712  0.4746980966241665  0.4541014552468710   F   F   F
  0.7461383787735159  0.5854958633044873  0.4224881911837883   F   F   F
  0.7977030752270309  0.4378884053466128  0.6348256963944027   T   T   T
  0.5911020174091490  0.6238666975949343  0.3780347436188976   F   F   F
  0.7184337867802384  0.7011166566873683  0.3834605945055571   F   F   F
  0.8411529142292764  0.5976104669426832  0.4195961671555111   F   F   F
  0.0047645486475076  0.6589820201033589  0.3577783004107076   F   F   F
  0.8283586993267491  0.7675405442855592  0.4679422553080954   F   F   F
  0.8783477129133539  0.6543164060697468  0.7205098009260972   T   T   T
  0.5199903139612303  0.0407486324352746  0.4217030704774842   F   F   F
  0.2230945721612159  0.0353387060675061  0.3932050219465495   F   F   F
  0.2163736907482345  0.2930353288766483  0.3192303272980936   F   F   F
  0.1575010503616241  0.3849901008808416  0.2789829167401123   F   F   F
  0.3415468765692253  0.2107695764228765  0.3307727584112428   F   F   F
  0.2227158616647102  0.1009427968968666  0.3227384335196248   F   F   F
  0.5118916490809278  0.8791675486771763  0.5469157535707265   T   T   T
  0.3828082827335271  0.2992923055552155  0.6474951766352953   T   T   T
  0.2449581711803903  0.1482552186389950  0.5978710447625329   T   T   T
  0.3153809713091036  0.5423203354474069  0.4424346656312608   F   F   F
  0.4089561837294582  0.4939187295607681  0.4056905975982730   F   F   F
  0.3984995032241372  0.8482974785238113  0.3887867966224334   F   F   F
  0.2442023571188656  0.7106139496515027  0.2943268807443218   F   F   F
  0.3117413815567005  0.4736595844105480  0.3692576443915385   F   F   F
  0.4054742948844066  0.6394635243379412  0.3388198885480591   F   F   F
  0.1393576205880507  0.5431575174532881  0.3519294596467617   F   F   F
  0.5932693451318087  0.7531709992981845  0.3523979868156601   F   F   F
  0.4690068301459220  0.9166113401117428  0.4438283837725479   F   F   F
  0.1216405871312278  0.3793006634001500  0.6117301335946490   T   T   T
  0.0732019051717563  0.7200902665738467  0.6458401938639290   T   T   T
  0.2451502758098272  0.4390368416581662  0.6821807129248764   T   T   T
  0.2471642392794981  0.8717747886079776  0.6693640679291959   T   T   T
  0.5784836265805298  0.5644284222770973  0.7048674504221217   T   T   T
  0.4849681499705373  0.5697982219644119  0.7877727571524731   T   T   T
  0.6004813867819455  0.4670445236046857  0.7697167283878370   T   T   T
  0.5290926264138657  0.4329799437152273  0.7644437941960553   T   T   T
  0.5766732510918507  0.4258605331892289  0.7130277644244895   T   T   T
  0.5574386938705125  0.6054412008390823  0.7960154650231687   T   T   T
  0.5677906954898472  0.6898536775310391  0.7440145240702338   T   T   T
  0.5053645222073518  0.7060045122721632  0.7867873272621976   T   T   T
  0.3689417337945073  0.7035389682943389  0.4390000177989322   F   F   F
  0.3468156499810249  0.5592177388212036  0.4203881275781143   F   F   F
  0.8606160912160977  0.6215251711178529  0.6966086388169278   T   T   T
  0.3492751500233201  0.0113676888664975  0.5304719720740204   T   T   T
  0.0333839046451562  0.9871878087257770  0.5287401912230153   T   T   T
  0.6363554822990451  0.1340524164338248  0.4893766723794641   F   F   F
  0.0686461464807948  0.1074492923483774  0.3951107345583225   F   F   F
  0.4518995424319527  0.1847461957030774  0.4205972814427668   F   F   F
  0.8058841492861291  0.2688340505656726  0.4831666074103040   F   F   F
  0.9736668285783049  0.2370170177202832  0.5985560979471434   T   T   T
  0.2747652928840907  0.3543567418839473  0.4485122250900346   F   F   F
  0.5563541661963498  0.8302751620519331  0.4417510122690658   F   F   F
  0.3922652075835974  0.0240769592882579  0.6198138424476630   T   T   T
  0.1775172398589788  0.4051523202028378  0.4052731245300478   F   F   F
  0.8659783602993032  0.7393299730491026  0.6373571236508390   T   T   T
  0.8656960102276017  0.0223608029513613  0.4670384592975196   F   F   F
  0.3010471365896024  0.8161207057481050  0.4579252567998537   F   F   F
  0.4216109456219570  0.3164360878886967  0.3795963030273342   F   F   F
  0.8107243756861984  0.5205215076928661  0.5199590675021308   T   T   T
  0.9831896402477437  0.1269518680906223  0.5211461930134170   T   T   T
  0.5280394226065418  0.5002107595945939  0.6234227006690315   T   T   T
  0.0345364061182565  0.9751316325257804  0.4294052572495062   F   F   F
  0.9630365419446250  0.3583791788177777  0.3512576249606170   F   F   F
  0.0696266904488567  0.3912896364040606  0.3763717815531962   F   F   F
  0.2082956575310035  0.7838281650694796  0.3953601014000157   F   F   F
  0.0389012629134911  0.4742857864535068  0.4991087535393461   F   F   F
  0.2384268654447445  0.3413129693256334  0.5880016367166473   T   T   T
  0.3968047186276285  0.2492076509829978  0.6441120716043488   T   T   T
  0.4600241210300099  0.6032684824774470  0.5981038928206998   T   T   T
  0.9094421842341686  0.8037649615218780  0.5574585006041466   T   T   T
  0.8691272713299156  0.1632272132326307  0.4422783307318099   F   F   F
  0.5725767945756743  0.7225157237400168  0.3761317316733468   F   F   F
  0.1424265590957958  0.2143093696871006  0.3759722435750490   F   F   F
  0.3510871036934493  0.8197209533924620  0.6071070859657804   T   T   T
  0.9109960497951874  0.9002314422992441  0.4831796236075121   F   F   F
  0.0613380104910135  0.5920555767069899  0.4422534820284341   F   F   F
  0.7083390277084121  0.6103504227204866  0.4199576800001736   F   F   F
  0.0754872572765848  0.8719906757681031  0.4829941554854784   F   F   F
  0.7004647711973604  0.8827395858851332  0.4326352913293690   F   F   F
  0.7306639381602423  0.1031745220493951  0.5428864434509975   T   T   T
  0.9189705269843083  0.3573002735782468  0.6319678731569156   T   T   T
  0.7353131227998260  0.9077487621280451  0.6129672151716913   T   T   T
  0.6251219543867705  0.5825778729354099  0.4863787091564404   F   F   F
  0.5565732987385132  0.6848869112572515  0.4672494240254110   F   F   F
  0.4262402225672344  0.2989674862140395  0.5546289966393757   T   T   T
  0.9782900938336425  0.7834275044788441  0.4767956400891720   F   F   F
  0.6538942883167268  0.6491199459813443  0.6339850631269005   T   T   T
  0.3968250119861425  0.8008519005765371  0.5155001565592640   T   T   T
  0.6026900685395375  0.5728493226453395  0.3856709925442061   F   F   F
  0.7188027579639366  0.6865545123735624  0.5572530378038221   T   T   T
  0.1462274750313022  0.4210613715462103  0.6192479081124581   T   T   T
  0.0657516436059783  0.6030805941813675  0.5422082993268977   T   T   T
  0.8185201047421741  0.9395677960295910  0.5363988904927167   T   T   T
  0.8282155306614527  0.4105690135976232  0.4519033357708793   F   F   F
  0.5280430641244881  0.3487816691726061  0.5299382108088194   T   T   T
  0.7362997578322866  0.5542980854708439  0.5950250378910842   T   T   T
  0.5574339360995921  0.2276149760508730  0.3949085375269945   F   F   F
  0.8059640829904495  0.3115964413438661  0.3832928600033014   F   F   F
  0.2374462167629616  0.0084346213459412  0.5079195554207132   F   F   F
  0.6926452641293962  0.8318304195057267  0.5412421321881454   T   T   T
  0.9235580103111953  0.0042689027221065  0.5531280280445555   T   T   T
  0.5257372223541736  0.3729649904546406  0.3985559351687087   F   F   F
  0.4683288077508226  0.0426777096461790  0.5465347743276133   T   T   T
  0.8380795265817397  0.1497979634843798  0.5397509329941925   T   T   T
  0.5379032530424510  0.1716013601855622  0.4862370923690094   F   F   F
  0.3501934425152129  0.2417926033060667  0.4396363938456389   F   F   F
  0.0117603228167908  0.0175977707736195  0.3352437574830063   F   F   F
  0.4600449796930268  0.6535192998562409  0.6843373013613157   T   T   T
  0.6549652215522386  0.9805813751821333  0.3792282539811964   F   F   F
  0.0762933429470323  0.7412101282781052  0.4358810225764742   F   F   F
  0.4545125001784286  0.4558034144128851  0.5527165140584070   T   T   T
  0.7192194366265099  0.7556047222177824  0.3795829994963285   F   F   F
  0.4494505859460075  0.7521868389255776  0.5985944660814639   T   T   T
  0.7525510591055777  0.7645084462755065  0.4762954835743187   F   F   F
  0.7796610528621923  0.1757555680830112  0.6206787176124656   T   T   T
  0.9932746155468877  0.3631973442958980  0.4484029789284989   F   F   F
  0.5286504556951200  0.5677465208552789  0.5284613820138738   T   T   T
  0.8167775852155614  0.5542456053436879  0.4234422052650615   F   F   F
  0.2366827401563808  0.2000360446182518  0.6048784071242274   T   T   T
  0.2035333057163413  0.8858851869526987  0.4705336293601903   F   F   F
  0.2402222153915734  0.6141181332547533  0.5224278780247048   T   T   T
  0.0610391212283391  0.6806128706416578  0.6239646896826384   T   T   T
  0.0460740722049948  0.6575305630493702  0.3541786312221902   F   F   F
  0.8012403639348703  0.0335650660540931  0.6058072862140853   T   T   T
  0.5379909097114037  0.0828813626538434  0.4045027517534763   F   F   F
  0.6040734383955632  0.3690187481490583  0.6044282324639627   T   T   T
  0.8615461075340960  0.0592647203656895  0.3692063291070653   F   F   F
  0.0949113079819810  0.2042067062767075  0.4670823258906296   F   F   F
  0.1715559403877829  0.2585248140725155  0.5307143084223511   T   T   T
  0.6409886548841044  0.7596225911080339  0.4548155821771758   F   F   F
  0.4367877834064799  0.4649523517738814  0.3864132536704119   F   F   F
  0.5739707238952740  0.1120234457819625  0.5705378140308436   T   T   T
  0.1514377462021059  0.6485918943738085  0.3889583608347777   F   F   F
  0.2677397900769023  0.6575214022950391  0.3923062966030031   F   F   F
  0.4402584600309112  0.3773820531868708  0.4703244327181508   F   F   F
  0.2380096658898907  0.2136950002304303  0.4299011866524154   F   F   F
  0.0728011236644680  0.2039966713309136  0.5621164601655940   T   T   T
  0.8442725155566105  0.5998041146919858  0.5994437390023493   T   T   T
  0.6211794284267498  0.3351237474733182  0.4109054511829981   F   F   F
  0.6026669933739228  0.9467105367042734  0.4672234595428861   F   F   F
  0.0313853912181870  0.2504736999951049  0.3889918752683101   F   F   F
  0.6090404424388236  0.2495681667967386  0.5478693955742867   T   T   T
  0.1327997263300347  0.9935385154496430  0.4794870772378772   F   F   F
  0.0798108947339126  0.3350738428414176  0.5123055494541983   T   T   T
  0.3727204968475956  0.1571514110879940  0.5691775084186244   T   T   T
  0.0659669430960373  0.7513818629445344  0.5356502161030384   T   T   T
  0.6664883802866157  0.4705687484731200  0.4300115561107631   F   F   F
  0.7988123372854956  0.7842682714718849  0.5645531802200302   T   T   T
  0.7038385586134339  0.0123923042067915  0.4701845621740759   F   F   F
  0.5966357620379877  0.6877815802919699  0.5543492415539356   T   T   T
  0.7228402998664549  0.3488685249886743  0.4516681052539582   F   F   F
  0.9770572403364602  0.3697916601804885  0.5470456744298177   T   T   T
  0.1578565699859708  0.6845688405364052  0.5701543126212990   T   T   T
  0.6333338448107071  0.3819669501739185  0.5078007023299378   F   F   F
  0.8195412194704901  0.4521357625789814  0.6056989114577740   T   T   T
  0.9585781980894978  0.0824269152768693  0.4169530046787955   F   F   F
  0.2822863704837871  0.2509746442127095  0.5186480337725473   T   T   T
  0.2492575497532457  0.4982167600544329  0.4610556955705079   F   F   F
  0.2727142630667994  0.9035835994224214  0.5678345022500432   T   T   T
  0.2036681493187373  0.7407570403557955  0.4868887178860462   F   F   F
  0.1471234534495878  0.5312537475793775  0.4925449251270066   F   F   F
  0.2249158621422660  0.4785444996321427  0.5568411293075324   T   T   T
  0.9114169782859136  0.5079284690934998  0.4737188145108959   F   F   F
  0.8697881761182842  0.7597439814306668  0.4641535209108483   F   F   F
  0.7381202078118392  0.1480184894441194  0.4452296472671975   F   F   F
  0.2221834364607460  0.9849650607116089  0.4079468165165281   F   F   F
  0.2520020041957275  0.4582016043646219  0.6490820310372062   T   T   T
  0.6302784428444370  0.9381956668704927  0.5938725984048571   T   T   T
  0.4102232653459481  0.8442462629143677  0.4234373851432949   F   F   F
  0.9177713527308597  0.2512221645748909  0.5082451459005242   F   F   F
  0.1325470584190001  0.4987199847418253  0.3322726622007863   F   F   F
  0.1551476808853849  0.3587071261215939  0.3105604161752922   F   F   F
  0.3730051452693530  0.1860909141715439  0.3479534200993726   F   F   F
  0.0345702672595440  0.3479641920041081  0.6332118260488883   T   T   T
  0.5726892607782261  0.3120520622941427  0.3200996781806822   F   F   F
  0.2458951847206940  0.8265660415655431  0.6501008296147555   T   T   T
  0.2073742988973706  0.7035889206128445  0.3103690611938177   F   F   F
  0.2753744117793318  0.4473751699592938  0.3673758273212613   F   F   F
  0.3653508124869589  0.6527705030914746  0.3422207943191111   F   F   F
  0.2263808502218509  0.1113646949552844  0.3581188824802055   F   F   F
  0.2412033350308818  0.2512620985375591  0.3293429668079639   F   F   F
  0.5012729261715734  0.9474854927868890  0.4548416832162587   F   F   F
  0.5506995164726264  0.8821050802786303  0.5342550928730240   T   T   T
  0.5465163107296492  0.7072374574853266  0.6368529038580412   T   T   T
  0.4781204265524295  0.1745007019328080  0.5965742595526098   T   T   T
  0.2622845075197519  0.7488672619717646  0.5691905787417225   T   T   T
  0.4444659839251940  0.8983712726362726  0.5830266327699879   T   T   T
  0.7650628168455283  0.6716903666619554  0.6496219120593003   T   T   T
  0.8449783941081733  0.8868454087805582  0.6227694929714936   T   T   T
  0.6413814367218528  0.7947398789216106  0.6211316123430074   T   T   T
  0.0077033432642666  0.0883398946482384  0.6030801323971365   T   T   T
  0.2851345153648564  0.0551880824141205  0.5938377906879801   T   T   T
  0.5042313468608872  0.0245312460924416  0.6286584635857100   T   T   T
  0.4261744909477344  0.4815146768485257  0.7057743153878628   T   T   T
  0.0832252792583148  0.6616041716390058  0.4064130837160320   F   F   F
  0.4096592999786962  0.8177187484242953  0.5749832630587971   T   T   T
  0.8417638189676637  0.4966369860369753  0.4678389696388976   F   F   F
  0.0170894936830805  0.0456659097568490  0.3936113541928137   F   F   F
  0.0147002066459194  0.3393741445575031  0.3910814136036507   F   F   F
  0.0090503106981336  0.1697727576052825  0.5722740440792914   T   T   T
  0.6101322111588294  0.7134048631406493  0.6114549836874003   T   T   T
  0.2140322661220903  0.5312587461063567  0.5096436043792517   T   T   T
  0.9150621278077509  0.8107448082659801  0.4962545438487922   F   F   F
  0.5205785424995497  0.1656394969314334  0.4259865881079392   F   F   F
  0.4185829473990807  0.2224573793101040  0.5891192503804316   T   T   T
  0.0834525281692322  0.1943559478997372  0.4069808717903314   F   F   F
  0.7018979345349692  0.1000301253312159  0.4873230277072054   F   F   F
  0.6650593546526977  0.9532213343124241  0.4374764361266443   F   F   F
  0.6500987440092842  0.5592109279009350  0.4301508871204760   F   F   F
  0.1984606475676856  0.9676661022331814  0.4639906909803457   F   F   F
  0.2140653973328569  0.4225389367199037  0.6035775802448647   T   T   T
  0.6739233510189880  0.8690273210415347  0.5945701919541667   T   T   T
  0.2165431326605242  0.6966375981067630  0.5385326909976738   T   T   T
  0.3687891183983183  0.7903116041479024  0.4592092972079129   F   F   F
  0.7975771320616002  0.9435248966058563  0.5955419242689601   T   T   T
  0.8795621862438802  0.9672811550367960  0.5119362700802045   T   T   T
  0.5760738912766645  0.6299899189152027  0.5117038283321469   T   T   T
  0.5898271172191095  0.1702319599430413  0.5253094437313539   T   T   T
  0.8581223412116756  0.2072971031878126  0.4951759473310489   F   F   F
  0.8350390295737236  0.6588327855151693  0.6458017695069649   T   T   T
  0.1337385207956885  0.4155027744683508  0.3568722791356791   F   F   F
  0.7906552883383853  0.3351231164788686  0.4418726542293072   F   F   F
  0.3991760968159852  0.2326787147761138  0.3960031981861079   F   F   F
  0.8557231401347587  0.8050855114269897  0.5964641038696814   T   T   T
  0.2831635731115488  0.9886551359509848  0.5492929290569706   T   T   T
  0.0230747323006639  0.3856313854262154  0.5022455100715746   F   F   F
  0.5745593848382811  0.7506739518051617  0.4355643604055430   F   F   F
  0.2302409542512009  0.8077843674007141  0.4519695445397645   F   F   F
  0.5940439506484861  0.3380532281604539  0.5481221953536168   T   T   T
  0.9752594300989098  0.3278224381787375  0.6024295896442291   T   T   T
  0.8889063590695159  0.0805928697263880  0.4242001869335610   F   F   F
  0.1047261221150034  0.2502445809404554  0.5178568470926331   T   T   T
  0.0481456608991806  0.7882209642648945  0.4826301941714348   F   F   F
  0.2320424214828776  0.2612001388511126  0.5609860684067537   T   T   T
  0.5614078070968063  0.3129691405622808  0.3812261074005363   F   F   F
  0.4787116899972682  0.6838229083917969  0.6290503456676942   T   T   T
  0.2817978290315785  0.8251093974919940  0.5978498727887464   T   T   T
  0.2085008253050660  0.6985837153311536  0.3717945352858223   F   F   F
  0.7400351209850586  0.7659562350237507  0.5358366338557587   T   T   T
  0.9863051004661190  0.0451350124960162  0.5505432345285327   T   T   T
  0.7031045578374417  0.7920020239896672  0.4342603982179796   F   F   F
  0.7883441025677577  0.1141599872467931  0.5766431144836499   T   T   T
  0.4563138980148480  0.3836354658542263  0.4092878915485585   F   F   F
  0.4504117368017715  0.9880535885735537  0.5949517997378485   T   T   T
  0.5086576829406970  0.0938664462309093  0.5860726903754017   T   T   T
  0.2442471516899545  0.4255901947084979  0.4209471039025985   F   F   F
  0.6585253437214931  0.3851859816758179  0.4503479098948588   F   F   F
  0.4610913075935539  0.3699619036663032  0.5283551917661526   T   T   T
  0.3372993678552234  0.6451264125930436  0.3990830096962270   F   F   F
  0.8027812531268557  0.5317829905378655  0.5795601898800153   T   T   T
  0.0692097893945274  0.9540430265313375  0.4805055068825652   F   F   F
  0.2119075788647606  0.1996381921392896  0.3735965933534686   F   F   F
  0.0782328566383796  0.5491688658889444  0.4946876202126234   F   F   F
  0.5575701889662170  0.9075239694569888  0.4747302534090920   F   F   F
  0.7179647069804194  0.6396186817032390  0.6096454715380105   T   T   T
  0.2866421242385897  0.2652856093763347  0.4591107728955208   F   F   F
  0.0876642202023919  0.6801915701903349  0.5677029390380572   T   T   T
  0.3541560253213635  0.0714686200583819  0.5786183548820824   T   T   T
  0.4936170798895927  0.5267355546056376  0.5732635834393042   T   T   T
  0.4719725163315873  0.5425775596504282  0.6775101692286588   T   T   T

  0.00000000E+00  0.00000000E+00  0.00000000E+00
  0.00000000E+00  0.00000000E+00  0.00000000E+00
  0.00000000E+00  0.00000000E+00  0.00000000E+00
  0.00000000E+00  0.00000000E+00  0.00000000E+00
  0.00000000E+00  0.00000000E+00  0.00000000E+00
  0.00000000E+00  0.00000000E+00  0.00000000E+00
  0.00000000E+00  0.00000000E+00  0.00000000E+00
  0.00000000E+00  0.00000000E+00  0.00000000E+00
  0.00000000E+00  0.00000000E+00  0.00000000E+00
  0.00000000E+00  0.00000000E+00  0.00000000E+00
  0.00000000E+00  0.00000000E+00  0.00000000E+00
  0.00000000E+00  0.00000000E+00  0.00000000E+00
  0.00000000E+00  0.00000000E+00  0.00000000E+00
  0.00000000E+00  0.00000000E+00  0.00000000E+00
  0.00000000E+00  0.00000000E+00  0.00000000E+00
  0.00000000E+00  0.00000000E+00  0.00000000E+00
  0.00000000E+00  0.00000000E+00  0.00000000E+00
  0.00000000E+00  0.00000000E+00  0.00000000E+00
  0.00000000E+00  0.00000000E+00  0.00000000E+00
  0.00000000E+00  0.00000000E+00  0.00000000E+00
  0.00000000E+00  0.00000000E+00  0.00000000E+00
  0.00000000E+00  0.00000000E+00  0.00000000E+00
  0.00000000E+00  0.00000000E+00  0.00000000E+00
  0.00000000E+00  0.00000000E+00  0.00000000E+00
  0.00000000E+00  0.00000000E+00  0.00000000E+00
  0.00000000E+00  0.00000000E+00  0.00000000E+00
  0.00000000E+00  0.00000000E+00  0.00000000E+00
  0.00000000E+00  0.00000000E+00  0.00000000E+00
  0.00000000E+00  0.00000000E+00  0.00000000E+00
  0.00000000E+00  0.00000000E+00  0.00000000E+00
  0.00000000E+00  0.00000000E+00  0.00000000E+00
  0.00000000E+00  0.00000000E+00  0.00000000E+00
  0.00000000E+00  0.00000000E+00  0.00000000E+00
  0.00000000E+00  0.00000000E+00  0.00000000E+00
  0.00000000E+00  0.00000000E+00  0.00000000E+00
  0.00000000E+00  0.00000000E+00  0.00000000E+00
  0.00000000E+00  0.00000000E+00  0.00000000E+00
  0.00000000E+00  0.00000000E+00  0.00000000E+00
  0.00000000E+00  0.00000000E+00  0.00000000E+00
  0.00000000E+00  0.00000000E+00  0.00000000E+00
  0.00000000E+00  0.00000000E+00  0.00000000E+00
  0.00000000E+00  0.00000000E+00  0.00000000E+00
  0.00000000E+00  0.00000000E+00  0.00000000E+00
  0.00000000E+00  0.00000000E+00  0.00000000E+00
  0.00000000E+00  0.00000000E+00  0.00000000E+00
  0.00000000E+00  0.00000000E+00  0.00000000E+00
  0.00000000E+00  0.00000000E+00  0.00000000E+00
  0.00000000E+00  0.00000000E+00  0.00000000E+00
  0.00000000E+00  0.00000000E+00  0.00000000E+00
  0.00000000E+00  0.00000000E+00  0.00000000E+00
  0.00000000E+00  0.00000000E+00  0.00000000E+00
  0.00000000E+00  0.00000000E+00  0.00000000E+00
  0.00000000E+00  0.00000000E+00  0.00000000E+00
  0.00000000E+00  0.00000000E+00  0.00000000E+00
  0.00000000E+00  0.00000000E+00  0.00000000E+00
  0.00000000E+00  0.00000000E+00  0.00000000E+00
  0.00000000E+00  0.00000000E+00  0.00000000E+00
  0.00000000E+00  0.00000000E+00  0.00000000E+00
  0.00000000E+00  0.00000000E+00  0.00000000E+00
  0.00000000E+00  0.00000000E+00  0.00000000E+00
  0.00000000E+00  0.00000000E+00  0.00000000E+00
  0.00000000E+00  0.00000000E+00  0.00000000E+00
  0.00000000E+00  0.00000000E+00  0.00000000E+00
  0.00000000E+00  0.00000000E+00  0.00000000E+00
  0.00000000E+00  0.00000000E+00  0.00000000E+00
  0.00000000E+00  0.00000000E+00  0.00000000E+00
  0.00000000E+00  0.00000000E+00  0.00000000E+00
  0.00000000E+00  0.00000000E+00  0.00000000E+00
  0.00000000E+00  0.00000000E+00  0.00000000E+00
  0.00000000E+00  0.00000000E+00  0.00000000E+00
  0.00000000E+00  0.00000000E+00  0.00000000E+00
  0.00000000E+00  0.00000000E+00  0.00000000E+00
  0.00000000E+00  0.00000000E+00  0.00000000E+00
  0.00000000E+00  0.00000000E+00  0.00000000E+00
  0.00000000E+00  0.00000000E+00  0.00000000E+00
  0.00000000E+00  0.00000000E+00  0.00000000E+00
  0.00000000E+00  0.00000000E+00  0.00000000E+00
  0.00000000E+00  0.00000000E+00  0.00000000E+00
  0.00000000E+00  0.00000000E+00  0.00000000E+00
  0.00000000E+00  0.00000000E+00  0.00000000E+00
  0.00000000E+00  0.00000000E+00  0.00000000E+00
  0.00000000E+00  0.00000000E+00  0.00000000E+00
  0.00000000E+00  0.00000000E+00  0.00000000E+00
  0.00000000E+00  0.00000000E+00  0.00000000E+00
  0.00000000E+00  0.00000000E+00  0.00000000E+00
  0.00000000E+00  0.00000000E+00  0.00000000E+00
  0.00000000E+00  0.00000000E+00  0.00000000E+00
  0.00000000E+00  0.00000000E+00  0.00000000E+00
  0.00000000E+00  0.00000000E+00  0.00000000E+00
  0.00000000E+00  0.00000000E+00  0.00000000E+00
  0.00000000E+00  0.00000000E+00  0.00000000E+00
  0.00000000E+00  0.00000000E+00  0.00000000E+00
  0.00000000E+00  0.00000000E+00  0.00000000E+00
  0.00000000E+00  0.00000000E+00  0.00000000E+00
  0.00000000E+00  0.00000000E+00  0.00000000E+00
  0.00000000E+00  0.00000000E+00  0.00000000E+00
  0.00000000E+00  0.00000000E+00  0.00000000E+00
  0.00000000E+00  0.00000000E+00  0.00000000E+00
  0.00000000E+00  0.00000000E+00  0.00000000E+00
  0.00000000E+00  0.00000000E+00  0.00000000E+00
  0.00000000E+00  0.00000000E+00  0.00000000E+00
  0.00000000E+00  0.00000000E+00  0.00000000E+00
  0.00000000E+00  0.00000000E+00  0.00000000E+00
  0.00000000E+00  0.00000000E+00  0.00000000E+00
  0.00000000E+00  0.00000000E+00  0.00000000E+00
  0.00000000E+00  0.00000000E+00  0.00000000E+00
  0.00000000E+00  0.00000000E+00  0.00000000E+00
  0.00000000E+00  0.00000000E+00  0.00000000E+00
  0.00000000E+00  0.00000000E+00  0.00000000E+00
  0.00000000E+00  0.00000000E+00  0.00000000E+00
  0.00000000E+00  0.00000000E+00  0.00000000E+00
  0.00000000E+00  0.00000000E+00  0.00000000E+00
  0.00000000E+00  0.00000000E+00  0.00000000E+00
  0.00000000E+00  0.00000000E+00  0.00000000E+00
  0.00000000E+00  0.00000000E+00  0.00000000E+00
  0.00000000E+00  0.00000000E+00  0.00000000E+00
  0.00000000E+00  0.00000000E+00  0.00000000E+00
  0.00000000E+00  0.00000000E+00  0.00000000E+00
  0.00000000E+00  0.00000000E+00  0.00000000E+00
  0.00000000E+00  0.00000000E+00  0.00000000E+00
  0.00000000E+00  0.00000000E+00  0.00000000E+00
  0.00000000E+00  0.00000000E+00  0.00000000E+00
  0.00000000E+00  0.00000000E+00  0.00000000E+00
  0.00000000E+00  0.00000000E+00  0.00000000E+00
  0.00000000E+00  0.00000000E+00  0.00000000E+00
  0.00000000E+00  0.00000000E+00  0.00000000E+00
  0.00000000E+00  0.00000000E+00  0.00000000E+00
  0.00000000E+00  0.00000000E+00  0.00000000E+00
  0.00000000E+00  0.00000000E+00  0.00000000E+00
  0.00000000E+00  0.00000000E+00  0.00000000E+00
  0.00000000E+00  0.00000000E+00  0.00000000E+00
  0.00000000E+00  0.00000000E+00  0.00000000E+00
  0.00000000E+00  0.00000000E+00  0.00000000E+00
  0.00000000E+00  0.00000000E+00  0.00000000E+00
  0.00000000E+00  0.00000000E+00  0.00000000E+00
  0.00000000E+00  0.00000000E+00  0.00000000E+00
  0.00000000E+00  0.00000000E+00  0.00000000E+00
  0.00000000E+00  0.00000000E+00  0.00000000E+00
  0.00000000E+00  0.00000000E+00  0.00000000E+00
  0.00000000E+00  0.00000000E+00  0.00000000E+00
  0.00000000E+00  0.00000000E+00  0.00000000E+00
  0.00000000E+00  0.00000000E+00  0.00000000E+00
  0.00000000E+00  0.00000000E+00  0.00000000E+00
  0.00000000E+00  0.00000000E+00  0.00000000E+00
  0.00000000E+00  0.00000000E+00  0.00000000E+00
  0.00000000E+00  0.00000000E+00  0.00000000E+00
  0.00000000E+00  0.00000000E+00  0.00000000E+00
  0.00000000E+00  0.00000000E+00  0.00000000E+00
  0.00000000E+00  0.00000000E+00  0.00000000E+00
  0.00000000E+00  0.00000000E+00  0.00000000E+00
  0.00000000E+00  0.00000000E+00  0.00000000E+00
  0.00000000E+00  0.00000000E+00  0.00000000E+00
  0.00000000E+00  0.00000000E+00  0.00000000E+00
  0.00000000E+00  0.00000000E+00  0.00000000E+00
  0.00000000E+00  0.00000000E+00  0.00000000E+00
  0.00000000E+00  0.00000000E+00  0.00000000E+00
  0.00000000E+00  0.00000000E+00  0.00000000E+00
  0.00000000E+00  0.00000000E+00  0.00000000E+00
  0.00000000E+00  0.00000000E+00  0.00000000E+00
  0.00000000E+00  0.00000000E+00  0.00000000E+00
  0.00000000E+00  0.00000000E+00  0.00000000E+00
  0.00000000E+00  0.00000000E+00  0.00000000E+00
  0.00000000E+00  0.00000000E+00  0.00000000E+00
  0.00000000E+00  0.00000000E+00  0.00000000E+00
  0.00000000E+00  0.00000000E+00  0.00000000E+00
  0.00000000E+00  0.00000000E+00  0.00000000E+00
  0.00000000E+00  0.00000000E+00  0.00000000E+00
  0.00000000E+00  0.00000000E+00  0.00000000E+00
  0.00000000E+00  0.00000000E+00  0.00000000E+00
  0.00000000E+00  0.00000000E+00  0.00000000E+00
  0.00000000E+00  0.00000000E+00  0.00000000E+00
  0.00000000E+00  0.00000000E+00  0.00000000E+00
  0.00000000E+00  0.00000000E+00  0.00000000E+00
  0.00000000E+00  0.00000000E+00  0.00000000E+00
  0.00000000E+00  0.00000000E+00  0.00000000E+00
  0.00000000E+00  0.00000000E+00  0.00000000E+00
  0.00000000E+00  0.00000000E+00  0.00000000E+00
  0.00000000E+00  0.00000000E+00  0.00000000E+00
  0.00000000E+00  0.00000000E+00  0.00000000E+00
  0.00000000E+00  0.00000000E+00  0.00000000E+00
  0.00000000E+00  0.00000000E+00  0.00000000E+00
  0.00000000E+00  0.00000000E+00  0.00000000E+00
  0.00000000E+00  0.00000000E+00  0.00000000E+00
  0.00000000E+00  0.00000000E+00  0.00000000E+00
  0.00000000E+00  0.00000000E+00  0.00000000E+00
  0.00000000E+00  0.00000000E+00  0.00000000E+00
  0.00000000E+00  0.00000000E+00  0.00000000E+00
  0.00000000E+00  0.00000000E+00  0.00000000E+00
  0.00000000E+00  0.00000000E+00  0.00000000E+00
  0.00000000E+00  0.00000000E+00  0.00000000E+00
  0.00000000E+00  0.00000000E+00  0.00000000E+00
  0.00000000E+00  0.00000000E+00  0.00000000E+00
  0.00000000E+00  0.00000000E+00  0.00000000E+00