 H  O Si  W                             
   1.00000000000000     
    23.4112945954000011    0.0000000000000000    0.0000000000000000
     0.0000000000000000   18.1212369513999967    0.0000000000000000
     0.0000000000000000    0.0000000000000000   26.8833665072999999
   H    O    Si   W 
    44   154    65     1
Selective dynamics
Direct
  0.7618968641339805  0.1036149910436848  0.6515559512632478   F   F   F
  0.9264276758775409  0.2786689628389283  0.3563349293400009   F   F   F
  0.7933396966928186  0.2072788972396751  0.3734565163880745   F   F   F
  0.9745391127316694  0.9436086005532900  0.3253027906056829   F   F   F
  0.6257326647787878  0.9634728499897562  0.3752311999972449   F   F   F
  0.8205383986272707  0.9950066635937915  0.3689926296547128   F   F   F
  0.7499930738495308  0.1411787558468731  0.4580381926778543   F   F   F
  0.9153701665569685  0.2494315358733701  0.5096751785927722   F   F   F
  0.5834928632816769  0.3042635462298904  0.3059271726651787   F   F   F
  0.8914903921527682  0.3345978202161319  0.6166320993479388   F   F   F
  0.5869016192778744  0.3563644806608366  0.6164082145086525   F   F   F
  0.5942433846341970  0.8713425091703968  0.5778896248855574   F   F   F
  0.0334013220521001  0.3372337153251834  0.6527861326294655   F   F   F
  0.9352705076763712  0.4195142257503406  0.4541014552468710   F   F   F
  0.7461383787735159  0.5303119924306614  0.4224881911837883   F   F   F
  0.7969915134760512  0.3811394325540931  0.6339707719131340   F   F   F
  0.5911020174091490  0.5686828267211084  0.3780347436188976   F   F   F
  0.7184337867802384  0.6459327858135424  0.3834605945055571   F   F   F
  0.8411529142292764  0.5424265960688572  0.4195961671555111   F   F   F
  0.0047645486475076  0.6037981492295330  0.3577783004107076   F   F   F
  0.8283586993267491  0.7123566734117333  0.4679422553080954   F   F   F
  0.8756724416928279  0.5996354527852006  0.7222130326107532   F   F   F
  0.5199903139612303  0.9855647615614487  0.4217030704774842   F   F   F
  0.2230945721612159  0.9801548351936802  0.3932050219465495   F   F   F
  0.2163736907482345  0.2378514580028224  0.3192303272980936   F   F   F
  0.1575010503616241  0.3298062300070157  0.2789829167401123   F   F   F
  0.3415468765692253  0.1555857055490506  0.3307727584112428   F   F   F
  0.2227158616647102  0.0457589260230407  0.3227384335196248   F   F   F
  0.5118410660211836  0.8248943818439329  0.5469612862962094   F   F   F
  0.3801162404633658  0.2427837734730431  0.6473311283608965   F   F   F
  0.2437616021935938  0.0929143639191707  0.5983256960918695   F   F   F
  0.3153809713091036  0.4871364645735810  0.4424346656312608   F   F   F
  0.4089561837294582  0.4387348586869422  0.4056905975982730   F   F   F
  0.3984995032241372  0.7931136076499854  0.3887867966224334   F   F   F
  0.2442023571188656  0.6554300787776768  0.2943268807443218   F   F   F
  0.3117413815567005  0.4184757135367221  0.3692576443915385   F   F   F
  0.4054742948844066  0.5842796534641153  0.3388198885480591   F   F   F
  0.1393576205880507  0.4879736465794622  0.3519294596467617   F   F   F
  0.5932693451318087  0.6979871284243586  0.3523979868156601   F   F   F
  0.4690068301459220  0.8614274692379169  0.4438283837725479   F   F   F
  0.1213998772126459  0.3231681073386170  0.6117657349748100   F   F   F
  0.0683314193328215  0.6681797440386390  0.6443196057630161   F   F   F
  0.2392151771453257  0.3883131991838127  0.6829082602815006   F   F   F
  0.2480223526110947  0.8140166397373036  0.6703722587371033   F   F   F
  0.3689417337945073  0.6483550974205130  0.4390000177989322   F   F   F
  0.3468156499810249  0.5040338679473777  0.4203881275781143   F   F   F
  0.8611319492669338  0.5666607867212008  0.6968320734528035   F   F   F
  0.3489968902624270  0.9574756137552285  0.5303343681560904   F   F   F
  0.0335255691024727  0.9321503706077436  0.5286965677249782   F   F   F
  0.6363554822990451  0.0788685455599989  0.4893766723794641   F   F   F
  0.0686461464807948  0.0522654214745515  0.3951107345583225   F   F   F
  0.4518995424319527  0.1295623248292515  0.4205972814427668   F   F   F
  0.8058841492861291  0.2136501796918466  0.4831666074103040   F   F   F
  0.9733775912980391  0.1812993939575591  0.5988185494935507   F   F   F
  0.2747652928840907  0.2991728710101214  0.4485122250900346   F   F   F
  0.5563541661963498  0.7750912911781072  0.4417510122690658   F   F   F
  0.3925983759735132  0.9707678480165995  0.6194103195740013   F   F   F
  0.1775172398589788  0.3499684493290118  0.4052731245300478   F   F   F
  0.8668686536560273  0.6841868906207011  0.6371604126277362   F   F   F
  0.8656960102276017  0.9671769320775354  0.4670384592975196   F   F   F
  0.3010471365896024  0.7609368348742791  0.4579252567998537   F   F   F
  0.4216109456219570  0.2612522170148708  0.3795963030273342   F   F   F
  0.8113293580100631  0.4654980637408954  0.5201568947571431   F   F   F
  0.9841843163955346  0.0726610054541865  0.5210718201063855   F   F   F
  0.5164530080339986  0.4442749403169373  0.6273848289506532   F   F   F
  0.0345364061182565  0.9199477616519545  0.4294052572495062   F   F   F
  0.9630365419446250  0.3031953079439518  0.3512576249606170   F   F   F
  0.0696266904488567  0.3361057655302346  0.3763717815531962   F   F   F
  0.2082956575310035  0.7286442941956537  0.3953601014000157   F   F   F
  0.0389012629134911  0.4191019155796809  0.4991087535393461   F   F   F
  0.2396386624220810  0.2858403183568470  0.5878928571957189   F   F   F
  0.3979711739925449  0.1946974619226154  0.6445461946031372   F   F   F
  0.4604047948076513  0.5547677950587229  0.5941906312174652   F   F   F
  0.9099771199702147  0.7492063190578122  0.5574404272625486   F   F   F
  0.8691272713299156  0.1080433423588048  0.4422783307318099   F   F   F
  0.5725767945756743  0.6673318528661909  0.3761317316733468   F   F   F
  0.1424265590957958  0.1591254988132746  0.3759722435750490   F   F   F
  0.3506262425084330  0.7656336058244335  0.6065841575401762   F   F   F
  0.9109960497951874  0.8450475714254182  0.4831796236075121   F   F   F
  0.0613380104910135  0.5368717058331640  0.4422534820284341   F   F   F
  0.7083390277084121  0.5551665518466606  0.4199576800001736   F   F   F
  0.0754872572765848  0.8168068048942771  0.4829941554854784   F   F   F
  0.7004647711973604  0.8275557150113073  0.4326352913293690   F   F   F
  0.7303092016484385  0.0491081916718770  0.5429568656234807   F   F   F
  0.9185085271413556  0.3006812995601393  0.6321275334479424   F   F   F
  0.7358291193189785  0.8537433187627173  0.6131108338562825   F   F   F
  0.6251219543867705  0.5273940020615839  0.4863787091564404   F   F   F
  0.5565732987385132  0.6297030403834256  0.4672494240254110   F   F   F
  0.4265765053889012  0.2453012057158404  0.5551359121910053   F   F   F
  0.9782900938336425  0.7282436336050182  0.4767956400891720   F   F   F
  0.6543520922982680  0.5945750832725949  0.6333565932731489   F   F   F
  0.3969182057711933  0.7462176476884608  0.5151448985474048   F   F   F
  0.6026900685395375  0.5176654517715136  0.3856709925442061   F   F   F
  0.7195484190874168  0.6315301962102637  0.5570236876438273   F   F   F
  0.1466262157895173  0.3640807733570028  0.6198510942311088   F   F   F
  0.0663148582561774  0.5485441701041509  0.5419336286731777   F   F   F
  0.8189542557157949  0.8848530508720032  0.5365957159070192   F   F   F
  0.8282155306614527  0.3553851427237973  0.4519033357708793   F   F   F
  0.5280327302983068  0.2976666381175193  0.5318758127983969   F   F   F
  0.7370253347336444  0.4995499539330197  0.5952052356201918   F   F   F
  0.5574339360995921  0.1724311051770471  0.3949085375269945   F   F   F
  0.8059640829904495  0.2564125704700402  0.3832928600033014   F   F   F
  0.2374462167629616  0.9532507504721153  0.5079195554207132   F   F   F
  0.6931896894867080  0.7770451078302969  0.5414146443956795   F   F   F
  0.9239809211430554  0.9501184257797703  0.5527373967616498   F   F   F
  0.5257372223541736  0.3177811195808147  0.3985559351687087   F   F   F
  0.4688629873162355  0.9891641591756155  0.5460321113733997   F   F   F
  0.8377183385464733  0.0950388753621425  0.5397760772063052   F   F   F
  0.5379032530424510  0.1164174893117362  0.4862370923690094   F   F   F
  0.3501934425152129  0.1866087324322407  0.4396363938456389   F   F   F
  0.0117603228167908  0.9624138998997935  0.3352437574830063   F   F   F
  0.4585713452711104  0.6014374573174166  0.6823609293284960   F   F   F
  0.6549652215522386  0.9253975043083074  0.3792282539811964   F   F   F
  0.0762933429470323  0.6860262574042792  0.4358810225764742   F   F   F
  0.4531425000063791  0.4034089673396650  0.5516232360235165   F   F   F
  0.7192194366265099  0.7004208513439565  0.3795829994963285   F   F   F
  0.4494824167633524  0.7011703399116058  0.5988278518529597   F   F   F
  0.7525510591055777  0.7093245754016806  0.4762954835743187   F   F   F
  0.7785388042758754  0.1212809715789049  0.6207611093305943   F   F   F
  0.9932746155468877  0.3080134734220721  0.4484029789284989   F   F   F
  0.5327968161284176  0.5101434729371164  0.5317265367993542   F   F   F
  0.8167775852155614  0.4990617344698620  0.4234422052650615   F   F   F
  0.2356944260476155  0.1448019194577981  0.6051320048508870   F   F   F
  0.2035333057163413  0.8307013160788728  0.4705336293601903   F   F   F
  0.2400719029938543  0.5585589373325703  0.5228498681143137   F   F   F
  0.0610285650905880  0.6254500991713527  0.6236247421440666   F   F   F
  0.0460740722049948  0.6023466921755443  0.3541786312221902   F   F   F
  0.8013489678492505  0.9792000551653999  0.6056994302657372   F   F   F
  0.5379909097114037  0.0276974917800175  0.4045027517534763   F   F   F
  0.6065985890587413  0.3123140063683749  0.6049527214558310   F   F   F
  0.8615461075340960  0.0040808494918636  0.3692063291070653   F   F   F
  0.0949113079819810  0.1490228354028815  0.4670823258906296   F   F   F
  0.1716528474428500  0.2041999977944755  0.5305667937521008   F   F   F
  0.6409886548841044  0.7044387202342079  0.4548155821771758   F   F   F
  0.4367877834064799  0.4097684809000555  0.3864132536704119   F   F   F
  0.5746957603130483  0.0578956432975843  0.5710443797833591   F   F   F
  0.1514377462021059  0.5934080234999826  0.3889583608347777   F   F   F
  0.2677397900769023  0.6023375314212132  0.3923062966030031   F   F   F
  0.4402584600309112  0.3221981823130449  0.4703244327181508   F   F   F
  0.2380096658898907  0.1585111293566044  0.4299011866524154   F   F   F
  0.0729823142278434  0.1502799193132063  0.5625578782932052   F   F   F
  0.8453521019403780  0.5439179756646624  0.6000232593240824   F   F   F
  0.6211794284267498  0.2799398765994923  0.4109054511829981   F   F   F
  0.6026669933739228  0.8915266658304475  0.4672234595428861   F   F   F
  0.0313853912181870  0.1952898291212790  0.3889918752683101   F   F   F
  0.6081353340635758  0.1949847310792734  0.5475096304483245   F   F   F
  0.1327997263300347  0.9383546445758171  0.4794870772378772   F   F   F
  0.0802676339175505  0.2804032909671861  0.5115797412311167   F   F   F
  0.3729257777674633  0.1032258872130072  0.5691605336733474   F   F   F
  0.0666461713830557  0.6971242052218543  0.5357468889695483   F   F   F
  0.6664883802866157  0.4153848775992941  0.4300115561107631   F   F   F
  0.7995052225247008  0.7298389374215333  0.5641580083475120   F   F   F
  0.7038385586134339  0.9572084333329656  0.4701845621740759   F   F   F
  0.5969557480883623  0.6344500615722453  0.5542670181957874   F   F   F
  0.7228402998664549  0.2936846541148483  0.4516681052539582   F   F   F
  0.9775975179322174  0.3141065471685494  0.5473160423557175   F   F   F
  0.1582607918071162  0.6297041423586975  0.5703961181396053   F   F   F
  0.6333338448107071  0.3267830793000925  0.5078007023299378   F   F   F
  0.8196234621606635  0.3962293594177382  0.6054919110023960   F   F   F
  0.9585781980894978  0.0272430444030434  0.4169530046787955   F   F   F
  0.2822301154710303  0.1951675436991422  0.5186520946478481   F   F   F
  0.2492575497532457  0.4430328891806070  0.4610556955705079   F   F   F
  0.2723623010690517  0.8490188080442209  0.5680908418594157   F   F   F
  0.2036681493187373  0.6855731694819696  0.4868887178860462   F   F   F
  0.1471234534495878  0.4760698767055516  0.4925449251270066   F   F   F
  0.2246706040636610  0.4223696037561453  0.5567751079656915   F   F   F
  0.9114169782859136  0.4527445982196738  0.4737188145108959   F   F   F
  0.8697881761182842  0.7045601105568409  0.4641535209108483   F   F   F
  0.7381202078118392  0.0928346185702935  0.4452296472671975   F   F   F
  0.2221834364607460  0.9297811898377830  0.4079468165165281   F   F   F
  0.2514193557051030  0.4019481811939158  0.6497340880876976   F   F   F
  0.6311877293647683  0.8839228424049921  0.5933018945686115   F   F   F
  0.4102232653459481  0.7890623920405417  0.4234373851432949   F   F   F
  0.9177713527308597  0.1960382937010650  0.5082451459005242   F   F   F
  0.1325470584190001  0.4435361138679994  0.3322726622007863   F   F   F
  0.1551476808853849  0.3035232552477680  0.3105604161752922   F   F   F
  0.3730051452693530  0.1309070432977180  0.3479534200993726   F   F   F
  0.0344923601863627  0.2919894452463438  0.6334787199158427   F   F   F
  0.5726892607782261  0.2568681914203168  0.3200996781806822   F   F   F
  0.2456035196767630  0.7700512853557200  0.6499088408764351   F   F   F
  0.2073742988973706  0.6484050497390186  0.3103690611938177   F   F   F
  0.2753744117793318  0.3921912990854679  0.3673758273212613   F   F   F
  0.3653508124869589  0.5975866322176486  0.3422207943191111   F   F   F
  0.2263808502218509  0.0561808240814585  0.3581188824802055   F   F   F
  0.2412033350308818  0.1960782276637332  0.3293429668079639   F   F   F
  0.5012729261715734  0.8923016219130631  0.4548416832162587   F   F   F
  0.5506826244297542  0.8275630904774189  0.5343446377351526   F   F   F
  0.5467564961485110  0.6566635589483667  0.6361061882045576   F   F   F
  0.4789226252770646  0.1206298506136037  0.5963858586956050   F   F   F
  0.2627072127863883  0.6938584576059910  0.5685710680239353   F   F   F
  0.4437335350582359  0.8454969766518872  0.5814860764611751   F   F   F
  0.7659100987764660  0.6172823873981059  0.6493013640288083   F   F   F
  0.8453295845841495  0.8319627010747155  0.6228703369082211   F   F   F
  0.6428638015404431  0.7405302540584771  0.6217479474726062   F   F   F
  0.0081767525396970  0.0334046727236412  0.6029909047745932   F   F   F
  0.2850160661025853  0.0008804981592405  0.5938357726174246   F   F   F
  0.5042506413127157  0.9701445900926586  0.6283059080854230   F   F   F
  0.5026698374293161  0.4675679429547657  0.7385851116573932   T   T   T
  0.0832252792583148  0.6064203007651798  0.4064130837160320   F   F   F
  0.4090235213568079  0.7650109070894260  0.5743731011422568   F   F   F
  0.8417638189676637  0.4414531151631493  0.4678389696388976   F   F   F
  0.0170894936830805  0.9904820388830231  0.3936113541928137   F   F   F
  0.0147002066459194  0.2841902736836772  0.3910814136036507   F   F   F
  0.0095352956411432  0.1149614727433317  0.5724969479619517   F   F   F
  0.6111056106457653  0.6598330333194653  0.6116339862879272   F   F   F
  0.2139717572540150  0.4757112638896359  0.5097935597302907   F   F   F
  0.9150621278077509  0.7555609373921541  0.4962545438487922   F   F   F
  0.5205785424995497  0.1104556260576075  0.4259865881079392   F   F   F
  0.4191071449631707  0.1680824116860578  0.5893220734943085   F   F   F
  0.0834525281692322  0.1391720770259113  0.4069808717903314   F   F   F
  0.7018979345349692  0.0448462544573900  0.4873230277072054   F   F   F
  0.6650593546526977  0.8980374634385981  0.4374764361266443   F   F   F
  0.6500987440092842  0.5040270570271090  0.4301508871204760   F   F   F
  0.1984606475676856  0.9124822313593555  0.4639906909803457   F   F   F
  0.2141929845189239  0.3664233776550461  0.6036794465228255   F   F   F
  0.6747356774432518  0.8147060510274500  0.5946968754363482   F   F   F
  0.2166696844116416  0.6413926120979028  0.5384798246520219   F   F   F
  0.3687891183983183  0.7351277332740764  0.4592092972079129   F   F   F
  0.7981089573357139  0.8890549841834456  0.5957088441375333   F   F   F
  0.8798889686593725  0.9123548297416733  0.5119578352128329   F   F   F
  0.5769986744007554  0.5755146943853902  0.5122515467413820   F   F   F
  0.5899054097086420  0.1152095993804778  0.5252480234790440   F   F   F
  0.8581223412116756  0.1521132323139867  0.4951759473310489   F   F   F
  0.8358134904440462  0.6037576975086196  0.6459480743209340   F   F   F
  0.1337385207956885  0.3603189035945249  0.3568722791356791   F   F   F
  0.7906552883383853  0.2799392456050427  0.4418726542293072   F   F   F
  0.3991760968159852  0.1774948439022879  0.3960031981861079   F   F   F
  0.8562375932977488  0.7502298029692440  0.5965188645315962   F   F   F
  0.2830513002236472  0.9340673580655121  0.5494397830617999   F   F   F
  0.0230747323006639  0.3304475145523895  0.5022455100715746   F   F   F
  0.5745593848382811  0.6954900809313358  0.4355643604055430   F   F   F
  0.2302409542512009  0.7526004965268882  0.4519695445397645   F   F   F
  0.5942576155228068  0.2834586673927149  0.5483605281912034   F   F   F
  0.9751213643240675  0.2720692949802910  0.6027091057112486   F   F   F
  0.8889063590695159  0.0254089988525621  0.4242001869335610   F   F   F
  0.1048186373155673  0.1955145910316176  0.5177058156278491   F   F   F
  0.0481456608991806  0.7330370933910686  0.4826301941714348   F   F   F
  0.2320077320751111  0.2057978517939532  0.5609886122347092   F   F   F
  0.5614078070968063  0.2577852696884548  0.3812261074005363   F   F   F
  0.4799356333377176  0.6319165400566646  0.6264392722493071   F   F   F
  0.2813314559585152  0.7701183323580452  0.5976074508754721   F   F   F
  0.2085008253050660  0.6433998444573277  0.3717945352858223   F   F   F
  0.7405401954277906  0.7111755681703187  0.5358855019608697   F   F   F
  0.9867848326244015  0.9906160096185772  0.5503276836767412   F   F   F
  0.7031045578374417  0.7368181531158413  0.4342603982179796   F   F   F
  0.7879821946582553  0.0597582825122842  0.5768035048640314   F   F   F
  0.4563138980148480  0.3284515949804003  0.4092878915485585   F   F   F
  0.4504234812477463  0.9346076530383627  0.5942382525419845   F   F   F
  0.5091984125318731  0.0396862228822243  0.5860219489777023   F   F   F
  0.2442471516899545  0.3704063238346720  0.4209471039025985   F   F   F
  0.6585253437214931  0.3300021108019919  0.4503479098948588   F   F   F
  0.4607713570918364  0.3162454435598789  0.5284789712842723   F   F   F
  0.3372993678552234  0.5899425417192177  0.3990830096962270   F   F   F
  0.8034415463928042  0.4764850720255538  0.5798329672115585   F   F   F
  0.0692097893945274  0.8988591556575116  0.4805055068825652   F   F   F
  0.2119075788647606  0.1444543212654636  0.3735965933534686   F   F   F
  0.0782328566383796  0.4939849950151185  0.4946876202126234   F   F   F
  0.5575701889662170  0.8523400985831628  0.4747302534090920   F   F   F
  0.7186655635070736  0.5849409777148153  0.6096143287175266   F   F   F
  0.2866421242385897  0.2101017385025088  0.4591107728955208   F   F   F
  0.0880442295137556  0.6255689261192714  0.5676020080526740   F   F   F
  0.3539131153731603  0.0175942193239962  0.5784606915943797   F   F   F
  0.4896613782513057  0.4751688494873392  0.5731017227845854   F   F   F
  0.4846861200341622  0.5009256023477989  0.6807549700003287   T   T   T
 
  0.00000000E+00  0.00000000E+00  0.00000000E+00
  0.00000000E+00  0.00000000E+00  0.00000000E+00
  0.00000000E+00  0.00000000E+00  0.00000000E+00
  0.00000000E+00  0.00000000E+00  0.00000000E+00
  0.00000000E+00  0.00000000E+00  0.00000000E+00
  0.00000000E+00  0.00000000E+00  0.00000000E+00
  0.00000000E+00  0.00000000E+00  0.00000000E+00
  0.00000000E+00  0.00000000E+00  0.00000000E+00
  0.00000000E+00  0.00000000E+00  0.00000000E+00
  0.00000000E+00  0.00000000E+00  0.00000000E+00
  0.00000000E+00  0.00000000E+00  0.00000000E+00
  0.00000000E+00  0.00000000E+00  0.00000000E+00
  0.00000000E+00  0.00000000E+00  0.00000000E+00
  0.00000000E+00  0.00000000E+00  0.00000000E+00
  0.00000000E+00  0.00000000E+00  0.00000000E+00
  0.00000000E+00  0.00000000E+00  0.00000000E+00
  0.00000000E+00  0.00000000E+00  0.00000000E+00
  0.00000000E+00  0.00000000E+00  0.00000000E+00
  0.00000000E+00  0.00000000E+00  0.00000000E+00
  0.00000000E+00  0.00000000E+00  0.00000000E+00
  0.00000000E+00  0.00000000E+00  0.00000000E+00
  0.00000000E+00  0.00000000E+00  0.00000000E+00
  0.00000000E+00  0.00000000E+00  0.00000000E+00
  0.00000000E+00  0.00000000E+00  0.00000000E+00
  0.00000000E+00  0.00000000E+00  0.00000000E+00
  0.00000000E+00  0.00000000E+00  0.00000000E+00
  0.00000000E+00  0.00000000E+00  0.00000000E+00
  0.00000000E+00  0.00000000E+00  0.00000000E+00
  0.00000000E+00  0.00000000E+00  0.00000000E+00
  0.00000000E+00  0.00000000E+00  0.00000000E+00
  0.00000000E+00  0.00000000E+00  0.00000000E+00
  0.00000000E+00  0.00000000E+00  0.00000000E+00
  0.00000000E+00  0.00000000E+00  0.00000000E+00
  0.00000000E+00  0.00000000E+00  0.00000000E+00
  0.00000000E+00  0.00000000E+00  0.00000000E+00
  0.00000000E+00  0.00000000E+00  0.00000000E+00
  0.00000000E+00  0.00000000E+00  0.00000000E+00
  0.00000000E+00  0.00000000E+00  0.00000000E+00
  0.00000000E+00  0.00000000E+00  0.00000000E+00
  0.00000000E+00  0.00000000E+00  0.00000000E+00
  0.00000000E+00  0.00000000E+00  0.00000000E+00
  0.00000000E+00  0.00000000E+00  0.00000000E+00
  0.00000000E+00  0.00000000E+00  0.00000000E+00
  0.00000000E+00  0.00000000E+00  0.00000000E+00
  0.00000000E+00  0.00000000E+00  0.00000000E+00
  0.00000000E+00  0.00000000E+00  0.00000000E+00
  0.00000000E+00  0.00000000E+00  0.00000000E+00
  0.00000000E+00  0.00000000E+00  0.00000000E+00
  0.00000000E+00  0.00000000E+00  0.00000000E+00
  0.00000000E+00  0.00000000E+00  0.00000000E+00
  0.00000000E+00  0.00000000E+00  0.00000000E+00
  0.00000000E+00  0.00000000E+00  0.00000000E+00
  0.00000000E+00  0.00000000E+00  0.00000000E+00
  0.00000000E+00  0.00000000E+00  0.00000000E+00
  0.00000000E+00  0.00000000E+00  0.00000000E+00
  0.00000000E+00  0.00000000E+00  0.00000000E+00
  0.00000000E+00  0.00000000E+00  0.00000000E+00
  0.00000000E+00  0.00000000E+00  0.00000000E+00
  0.00000000E+00  0.00000000E+00  0.00000000E+00
  0.00000000E+00  0.00000000E+00  0.00000000E+00
  0.00000000E+00  0.00000000E+00  0.00000000E+00
  0.00000000E+00  0.00000000E+00  0.00000000E+00
  0.00000000E+00  0.00000000E+00  0.00000000E+00
  0.00000000E+00  0.00000000E+00  0.00000000E+00
  0.00000000E+00  0.00000000E+00  0.00000000E+00
  0.00000000E+00  0.00000000E+00  0.00000000E+00
  0.00000000E+00  0.00000000E+00  0.00000000E+00
  0.00000000E+00  0.00000000E+00  0.00000000E+00
  0.00000000E+00  0.00000000E+00  0.00000000E+00
  0.00000000E+00  0.00000000E+00  0.00000000E+00
  0.00000000E+00  0.00000000E+00  0.00000000E+00
  0.00000000E+00  0.00000000E+00  0.00000000E+00
  0.00000000E+00  0.00000000E+00  0.00000000E+00
  0.00000000E+00  0.00000000E+00  0.00000000E+00
  0.00000000E+00  0.00000000E+00  0.00000000E+00
  0.00000000E+00  0.00000000E+00  0.00000000E+00
  0.00000000E+00  0.00000000E+00  0.00000000E+00
  0.00000000E+00  0.00000000E+00  0.00000000E+00
  0.00000000E+00  0.00000000E+00  0.00000000E+00
  0.00000000E+00  0.00000000E+00  0.00000000E+00
  0.00000000E+00  0.00000000E+00  0.00000000E+00
  0.00000000E+00  0.00000000E+00  0.00000000E+00
  0.00000000E+00  0.00000000E+00  0.00000000E+00
  0.00000000E+00  0.00000000E+00  0.00000000E+00
  0.00000000E+00  0.00000000E+00  0.00000000E+00
  0.00000000E+00  0.00000000E+00  0.00000000E+00
  0.00000000E+00  0.00000000E+00  0.00000000E+00
  0.00000000E+00  0.00000000E+00  0.00000000E+00
  0.00000000E+00  0.00000000E+00  0.00000000E+00
  0.00000000E+00  0.00000000E+00  0.00000000E+00
  0.00000000E+00  0.00000000E+00  0.00000000E+00
  0.00000000E+00  0.00000000E+00  0.00000000E+00
  0.00000000E+00  0.00000000E+00  0.00000000E+00
  0.00000000E+00  0.00000000E+00  0.00000000E+00
  0.00000000E+00  0.00000000E+00  0.00000000E+00
  0.00000000E+00  0.00000000E+00  0.00000000E+00
  0.00000000E+00  0.00000000E+00  0.00000000E+00
  0.00000000E+00  0.00000000E+00  0.00000000E+00
  0.00000000E+00  0.00000000E+00  0.00000000E+00
  0.00000000E+00  0.00000000E+00  0.00000000E+00
  0.00000000E+00  0.00000000E+00  0.00000000E+00
  0.00000000E+00  0.00000000E+00  0.00000000E+00
  0.00000000E+00  0.00000000E+00  0.00000000E+00
  0.00000000E+00  0.00000000E+00  0.00000000E+00
  0.00000000E+00  0.00000000E+00  0.00000000E+00
  0.00000000E+00  0.00000000E+00  0.00000000E+00
  0.00000000E+00  0.00000000E+00  0.00000000E+00
  0.00000000E+00  0.00000000E+00  0.00000000E+00
  0.00000000E+00  0.00000000E+00  0.00000000E+00
  0.00000000E+00  0.00000000E+00  0.00000000E+00
  0.00000000E+00  0.00000000E+00  0.00000000E+00
  0.00000000E+00  0.00000000E+00  0.00000000E+00
  0.00000000E+00  0.00000000E+00  0.00000000E+00
  0.00000000E+00  0.00000000E+00  0.00000000E+00
  0.00000000E+00  0.00000000E+00  0.00000000E+00
  0.00000000E+00  0.00000000E+00  0.00000000E+00
  0.00000000E+00  0.00000000E+00  0.00000000E+00
  0.00000000E+00  0.00000000E+00  0.00000000E+00
  0.00000000E+00  0.00000000E+00  0.00000000E+00
  0.00000000E+00  0.00000000E+00  0.00000000E+00
  0.00000000E+00  0.00000000E+00  0.00000000E+00
  0.00000000E+00  0.00000000E+00  0.00000000E+00
  0.00000000E+00  0.00000000E+00  0.00000000E+00
  0.00000000E+00  0.00000000E+00  0.00000000E+00
  0.00000000E+00  0.00000000E+00  0.00000000E+00
  0.00000000E+00  0.00000000E+00  0.00000000E+00
  0.00000000E+00  0.00000000E+00  0.00000000E+00
  0.00000000E+00  0.00000000E+00  0.00000000E+00
  0.00000000E+00  0.00000000E+00  0.00000000E+00
  0.00000000E+00  0.00000000E+00  0.00000000E+00
  0.00000000E+00  0.00000000E+00  0.00000000E+00
  0.00000000E+00  0.00000000E+00  0.00000000E+00
  0.00000000E+00  0.00000000E+00  0.00000000E+00
  0.00000000E+00  0.00000000E+00  0.00000000E+00
  0.00000000E+00  0.00000000E+00  0.00000000E+00
  0.00000000E+00  0.00000000E+00  0.00000000E+00
  0.00000000E+00  0.00000000E+00  0.00000000E+00
  0.00000000E+00  0.00000000E+00  0.00000000E+00
  0.00000000E+00  0.00000000E+00  0.00000000E+00
  0.00000000E+00  0.00000000E+00  0.00000000E+00
  0.00000000E+00  0.00000000E+00  0.00000000E+00
  0.00000000E+00  0.00000000E+00  0.00000000E+00
  0.00000000E+00  0.00000000E+00  0.00000000E+00
  0.00000000E+00  0.00000000E+00  0.00000000E+00
  0.00000000E+00  0.00000000E+00  0.00000000E+00
  0.00000000E+00  0.00000000E+00  0.00000000E+00
  0.00000000E+00  0.00000000E+00  0.00000000E+00
  0.00000000E+00  0.00000000E+00  0.00000000E+00
  0.00000000E+00  0.00000000E+00  0.00000000E+00
  0.00000000E+00  0.00000000E+00  0.00000000E+00
  0.00000000E+00  0.00000000E+00  0.00000000E+00
  0.00000000E+00  0.00000000E+00  0.00000000E+00
  0.00000000E+00  0.00000000E+00  0.00000000E+00
  0.00000000E+00  0.00000000E+00  0.00000000E+00
  0.00000000E+00  0.00000000E+00  0.00000000E+00
  0.00000000E+00  0.00000000E+00  0.00000000E+00
  0.00000000E+00  0.00000000E+00  0.00000000E+00
  0.00000000E+00  0.00000000E+00  0.00000000E+00
  0.00000000E+00  0.00000000E+00  0.00000000E+00
  0.00000000E+00  0.00000000E+00  0.00000000E+00
  0.00000000E+00  0.00000000E+00  0.00000000E+00
  0.00000000E+00  0.00000000E+00  0.00000000E+00
  0.00000000E+00  0.00000000E+00  0.00000000E+00
  0.00000000E+00  0.00000000E+00  0.00000000E+00
  0.00000000E+00  0.00000000E+00  0.00000000E+00
  0.00000000E+00  0.00000000E+00  0.00000000E+00
  0.00000000E+00  0.00000000E+00  0.00000000E+00
  0.00000000E+00  0.00000000E+00  0.00000000E+00
  0.00000000E+00  0.00000000E+00  0.00000000E+00
  0.00000000E+00  0.00000000E+00  0.00000000E+00
  0.00000000E+00  0.00000000E+00  0.00000000E+00
  0.00000000E+00  0.00000000E+00  0.00000000E+00
  0.00000000E+00  0.00000000E+00  0.00000000E+00
  0.00000000E+00  0.00000000E+00  0.00000000E+00
  0.00000000E+00  0.00000000E+00  0.00000000E+00
  0.00000000E+00  0.00000000E+00  0.00000000E+00
  0.00000000E+00  0.00000000E+00  0.00000000E+00
  0.00000000E+00  0.00000000E+00  0.00000000E+00
  0.00000000E+00  0.00000000E+00  0.00000000E+00
  0.00000000E+00  0.00000000E+00  0.00000000E+00
  0.00000000E+00  0.00000000E+00  0.00000000E+00
  0.00000000E+00  0.00000000E+00  0.00000000E+00
  0.00000000E+00  0.00000000E+00  0.00000000E+00
  0.00000000E+00  0.00000000E+00  0.00000000E+00
  0.00000000E+00  0.00000000E+00  0.00000000E+00
  0.00000000E+00  0.00000000E+00  0.00000000E+00
  0.00000000E+00  0.00000000E+00  0.00000000E+00
  0.00000000E+00  0.00000000E+00  0.00000000E+00
  0.00000000E+00  0.00000000E+00  0.00000000E+00
  0.00000000E+00  0.00000000E+00  0.00000000E+00
  0.00000000E+00  0.00000000E+00  0.00000000E+00
  0.00000000E+00  0.00000000E+00  0.00000000E+00
  0.00000000E+00  0.00000000E+00  0.00000000E+00
  0.00000000E+00  0.00000000E+00  0.00000000E+00
  0.00000000E+00  0.00000000E+00  0.00000000E+00
  0.00000000E+00  0.00000000E+00  0.00000000E+00
  0.00000000E+00  0.00000000E+00  0.00000000E+00
  0.00000000E+00  0.00000000E+00  0.00000000E+00
  0.00000000E+00  0.00000000E+00  0.00000000E+00
  0.00000000E+00  0.00000000E+00  0.00000000E+00
  0.00000000E+00  0.00000000E+00  0.00000000E+00
  0.00000000E+00  0.00000000E+00  0.00000000E+00
  0.00000000E+00  0.00000000E+00  0.00000000E+00
  0.00000000E+00  0.00000000E+00  0.00000000E+00
  0.00000000E+00  0.00000000E+00  0.00000000E+00
  0.00000000E+00  0.00000000E+00  0.00000000E+00
  0.00000000E+00  0.00000000E+00  0.00000000E+00
  0.00000000E+00  0.00000000E+00  0.00000000E+00
  0.00000000E+00  0.00000000E+00  0.00000000E+00
  0.00000000E+00  0.00000000E+00  0.00000000E+00
  0.00000000E+00  0.00000000E+00  0.00000000E+00