 H  O Si  W                             
    1.000000000000000     
    23.4112945954000011    0.0000000000000000    0.0000000000000000
     0.0000000000000000   18.1212369513999967    0.0000000000000000
     0.0000000000000000    0.0000000000000000   26.8833665072999999
   H    O    Si   W 
    44   155    65     1
Selective dynamics
Direct
  0.7621084894561534  0.1006301956743059  0.6518387325057731   F   F   F
  0.9263371441120825  0.2763992582155126  0.3563349293400009   F   F   F
  0.7932491649273601  0.2050091926162594  0.3734565163880745   F   F   F
  0.9744485809662109  0.9413388959298743  0.3253027906056829   F   F   F
  0.6256421330133293  0.9612031453663406  0.3752311999972449   F   F   F
  0.8204478668618123  0.9927369589703758  0.3689926296547128   F   F   F
  0.7499025420840724  0.1389090512234574  0.4580381926778543   F   F   F
  0.9153878423294728  0.2471653593771919  0.5097556440225830   F   F   F
  0.5834023315162185  0.3019938416064747  0.3059271726651787   F   F   F
  0.8915575773572399  0.3327028740608355  0.6166403086779582   F   F   F
  0.5934066355365601  0.3587377886985479  0.6143961540379550   F   F   F
  0.5931167845107126  0.8672438252924053  0.5781809663260944   F   F   F
  0.0326467562044925  0.3357213193747199  0.6529523962110417   F   F   F
  0.9351799759109127  0.4172445211269249  0.4541014552468710   F   F   F
  0.7460478470080574  0.5280422878072457  0.4224881911837883   F   F   F
  0.7973947339992193  0.3796865236077025  0.6339991720989175   F   F   F
  0.5910114856436905  0.5664131220976927  0.3780347436188976   F   F   F
  0.7183432550147799  0.6436630811901267  0.3834605945055571   F   F   F
  0.8410623824638179  0.5401568914454415  0.4195961671555111   F   F   F
  0.0046740168820492  0.6015284446061173  0.3577783004107076   F   F   F
  0.8282681675612906  0.7100869687883176  0.4679422553080954   F   F   F
  0.8749773436287143  0.5961037170726087  0.7223293659902907   F   F   F
  0.5198997821957718  0.9832950569380330  0.4217030704774842   F   F   F
  0.2230040403957574  0.9778851305702645  0.3932050219465495   F   F   F
  0.2162831589827761  0.2355817533794067  0.3192303272980936   F   F   F
  0.1574105185961656  0.3275365253836000  0.2789829167401123   F   F   F
  0.3414563448037669  0.1533160009256349  0.3307727584112428   F   F   F
  0.2226253298992518  0.0434892213996250  0.3227384335196248   F   F   F
  0.5110978388545604  0.8247121091507807  0.5467880290419629   F   F   F
  0.3781963626225036  0.2408455709997881  0.6476579933481190   F   F   F
  0.2433598532447974  0.0916224580617495  0.5986602545126587   F   F   F
  0.3152904395436451  0.4848667599501653  0.4424346656312608   F   F   F
  0.4088656519639997  0.4364651540635265  0.4056905975982730   F   F   F
  0.3984089714586787  0.7908439030265697  0.3887867966224334   F   F   F
  0.2441118253534071  0.6531603741542611  0.2943268807443218   F   F   F
  0.3116508497912420  0.4162060089133064  0.3692576443915385   F   F   F
  0.4053837631189481  0.5820099488406996  0.3388198885480591   F   F   F
  0.1392670888225922  0.4857039419560465  0.3519294596467617   F   F   F
  0.5931788133663503  0.6957174238009429  0.3523979868156601   F   F   F
  0.4689162983804636  0.8591577646145012  0.4438283837725479   F   F   F
  0.1216516405520522  0.3226701688913565  0.6123867094478896   F   F   F
  0.0686904961261590  0.6649176466840530  0.6446528688611650   F   F   F
  0.2411016263512167  0.3865607336299846  0.6827045411954700   F   F   F
  0.2489608625949344  0.8120201350514407  0.6706931444168589   F   F   F
  0.3688512020290489  0.6460853927970973  0.4390000177989322   F   F   F
  0.3467251182155664  0.5017641633239620  0.4203881275781143   F   F   F
  0.8608147858638304  0.5636090434607794  0.6965192175498061   F   F   F
  0.3487435591214734  0.9565161783663783  0.5309575450732495   F   F   F
  0.0334257965597260  0.9296344999738508  0.5287897776828316   F   F   F
  0.6362649505335867  0.0765988409365832  0.4893766723794641   F   F   F
  0.0685556147153363  0.0499957168511358  0.3951107345583225   F   F   F
  0.4518090106664943  0.1272926202058358  0.4205972814427668   F   F   F
  0.8057936175206706  0.2113804750684309  0.4831666074103040   F   F   F
  0.9736235217969309  0.1791762328363689  0.5987447910636590   F   F   F
  0.2746747611186322  0.2969031663867057  0.4485122250900346   F   F   F
  0.5562636344308913  0.7728215865546915  0.4417510122690658   F   F   F
  0.3917358714479704  0.9704073116838856  0.6200071724666927   F   F   F
  0.1774267080935203  0.3476987447055961  0.4052731245300478   F   F   F
  0.8663559702090566  0.6821421676025992  0.6373160453800608   F   F   F
  0.8656054784621432  0.9649072274541197  0.4670384592975196   F   F   F
  0.3009566048241439  0.7586671302508634  0.4579252567998537   F   F   F
  0.4215204138564985  0.2589825123914551  0.3795963030273342   F   F   F
  0.8110379606676617  0.4636378308441635  0.5200057740859734   F   F   F
  0.9843211614965952  0.0699802417105104  0.5211314835152905   F   F   F
  0.5135091107256855  0.4575806787162833  0.6294685349818181   F   F   F
  0.0344458743527980  0.9176780570285388  0.4294052572495062   F   F   F
  0.9629460101791665  0.3009256033205361  0.3512576249606170   F   F   F
  0.0695361586833982  0.3338360609068189  0.3763717815531962   F   F   F
  0.2082051257655451  0.7263745895722380  0.3953601014000157   F   F   F
  0.0388107311480326  0.4168322109562652  0.4991087535393461   F   F   F
  0.2392223162551375  0.2845044149489837  0.5875637737786263   F   F   F
  0.3974516272268573  0.1936912688076760  0.6447733873846104   F   F   F
  0.4544584765680355  0.5593922392509683  0.5836153740959276   F   F   F
  0.9097726525750858  0.7473669235438436  0.5575321451548447   F   F   F
  0.8690367395644572  0.1057736377353891  0.4422783307318099   F   F   F
  0.5724862628102159  0.6650621482427752  0.3761317316733468   F   F   F
  0.1423360273303373  0.1568557941898590  0.3759722435750490   F   F   F
  0.3507232280155179  0.7646137222366605  0.6061765936572385   F   F   F
  0.9109055180297290  0.8427778668020025  0.4831796236075121   F   F   F
  0.0612474787255550  0.5346020012097483  0.4422534820284341   F   F   F
  0.7082484959429536  0.5528968472232449  0.4199576800001736   F   F   F
  0.0753967255111263  0.8145371002708615  0.4829941554854784   F   F   F
  0.7003742394319019  0.8252860103878916  0.4326352913293690   F   F   F
  0.7300198108159677  0.0476261412846810  0.5430184704552516   F   F   F
  0.9184168635400596  0.2984818195370096  0.6320607953449766   F   F   F
  0.7348667835498688  0.8502662529530767  0.6129014754645397   F   F   F
  0.6250314226213121  0.5251242974381682  0.4863787091564404   F   F   F
  0.5564827669730548  0.6274333357600099  0.4672494240254110   F   F   F
  0.4256931417279262  0.2450313078086737  0.5553698774754920   F   F   F
  0.9781995620681840  0.7259739289816025  0.4767956400891720   F   F   F
  0.6539195376453080  0.5911657528442120  0.6329460162109868   F   F   F
  0.3971118029115459  0.7450168199179785  0.5149788886532463   F   F   F
  0.6025995367740791  0.5153957471480979  0.3856709925442061   F   F   F
  0.7201084209993240  0.6283657423369107  0.5569609832565448   F   F   F
  0.1468782995276996  0.3638508448900240  0.6198057764883842   F   F   F
  0.0661925016361593  0.5458965312234625  0.5420404966700971   F   F   F
  0.8189064492493472  0.8821438801964945  0.5367017891647237   F   F   F
  0.8281249988959942  0.3531154381003816  0.4519033357708793   F   F   F
  0.5277264001598709  0.2959851912140365  0.5323270365881498   F   F   F
  0.7368649546783743  0.4967005468662578  0.5952526310410207   F   F   F
  0.5573434043341337  0.1701614005536314  0.3949085375269945   F   F   F
  0.8058735512249910  0.2541428658466245  0.3832928600033014   F   F   F
  0.2373556849975031  0.9509810458486996  0.5079195554207132   F   F   F
  0.6923613166846607  0.7729934938912422  0.5418260153123668   F   F   F
  0.9239087698905166  0.9473965177981682  0.5530114323931414   F   F   F
  0.5256466905887152  0.3155114149573990  0.3985559351687087   F   F   F
  0.4687027644057054  0.9888920615098655  0.5465184479381477   F   F   F
  0.8378102055229846  0.0928126164530170  0.5399978869672211   F   F   F
  0.5378127212769925  0.1141477846883205  0.4862370923690094   F   F   F
  0.3501029107497544  0.1843390278088251  0.4396363938456389   F   F   F
  0.0116697910513324  0.9601441952763778  0.3352437574830063   F   F   F
  0.4546408947050651  0.5950826837631382  0.6767091347225005   F   F   F
  0.6548746897867801  0.9231277996848917  0.3792282539811964   F   F   F
  0.0762028111815738  0.6837565527808636  0.4358810225764742   F   F   F
  0.4540763787359765  0.4027342053449630  0.5530319773089474   F   F   F
  0.7191289048610514  0.6981511467205408  0.3795829994963285   F   F   F
  0.4509533120942066  0.7035512475895445  0.5991923938525403   F   F   F
  0.7524605273401193  0.7070548707782649  0.4762954835743187   F   F   F
  0.7788498081107207  0.1185256297504580  0.6211477425631315   F   F   F
  0.9931840837814292  0.3057437687986564  0.4484029789284989   F   F   F
  0.5351788894380434  0.5077048597967035  0.5335400460256778   F   F   F
  0.8166870534501030  0.4967920298464463  0.4234422052650615   F   F   F
  0.2361317785021626  0.1437336427332596  0.6053441474953445   F   F   F
  0.2034427739508828  0.8284316114554571  0.4705336293601903   F   F   F
  0.2400495196780241  0.5569401262283336  0.5225090245840747   F   F   F
  0.0608873369208141  0.6225868520198574  0.6237216910450414   F   F   F
  0.0459835404395363  0.6000769875521286  0.3541786312221902   F   F   F
  0.8002511197606310  0.9763670876167510  0.6057095662988914   F   F   F
  0.5379003779459453  0.0254277871566018  0.4045027517534763   F   F   F
  0.6065092354153307  0.3098552489023234  0.6050651882550397   F   F   F
  0.8614555757686375  0.0018111448684479  0.3692063291070653   F   F   F
  0.0948207762165225  0.1467531307794658  0.4670823258906296   F   F   F
  0.1715792291628304  0.2019935816795240  0.5305834238674407   F   F   F
  0.6408981231186459  0.7021690156107923  0.4548155821771758   F   F   F
  0.4366972516410215  0.4074987762766398  0.3864132536704119   F   F   F
  0.5744669325876686  0.0570733132376517  0.5715178376857608   F   F   F
  0.1513472144366474  0.5911383188765669  0.3889583608347777   F   F   F
  0.2676492583114438  0.6000678267977975  0.3923062966030031   F   F   F
  0.4401679282654527  0.3199284776896292  0.4703244327181508   F   F   F
  0.2379191341244322  0.1562414247331887  0.4299011866524154   F   F   F
  0.0731258716166323  0.1478551364893903  0.5624576228098945   F   F   F
  0.8449664109023729  0.5427877539384056  0.5994468172171565   F   F   F
  0.6210888966612913  0.2776701719760766  0.4109054511829981   F   F   F
  0.6025764616084643  0.8892569612070318  0.4672234595428861   F   F   F
  0.0312948594527285  0.1930201244978633  0.3889918752683101   F   F   F
  0.6078529693696808  0.1932045712192902  0.5473354082942308   F   F   F
  0.1327091945645762  0.9360849399524014  0.4794870772378772   F   F   F
  0.0800949241730180  0.2780737564106985  0.5117462865470301   F   F   F
  0.3723830439073197  0.1024254040831849  0.5693938662516729   F   F   F
  0.0663784106174035  0.6941868553213268  0.5355439984491639   F   F   F
  0.6663978485211572  0.4131151729758784  0.4300115561107631   F   F   F
  0.7993351422885695  0.7275808979411806  0.5640845842424724   F   F   F
  0.7037480268479754  0.9549387287095499  0.4701845621740759   F   F   F
  0.5989176966606848  0.6339420236463909  0.5528240770285606   F   F   F
  0.7227497681009964  0.2914149494914327  0.4516681052539582   F   F   F
  0.9773072443833115  0.3118531713668418  0.5471771379056989   F   F   F
  0.1581444834111636  0.6276191354674978  0.5704391844392731   F   F   F
  0.6332433130452486  0.3245133746766768  0.5078007023299378   F   F   F
  0.8203715222632368  0.3949847304018945  0.6057764818035167   F   F   F
  0.9584876663240394  0.0249733397796277  0.4169530046787955   F   F   F
  0.2822473433413109  0.1935045793424308  0.5186839296045846   F   F   F
  0.2491670179877872  0.4407631845571913  0.4610556955705079   F   F   F
  0.2721417300109295  0.8470553397012566  0.5678517938861631   F   F   F
  0.2035776175532789  0.6833034648585539  0.4868887178860462   F   F   F
  0.1470329216841293  0.4738001720821359  0.4925449251270066   F   F   F
  0.2250209770182749  0.4214795192155378  0.5568647399951843   F   F   F
  0.9113264465204551  0.4504748935962581  0.4737188145108959   F   F   F
  0.8696976443528257  0.7022904059334252  0.4641535209108483   F   F   F
  0.7380296760463807  0.0905649139468778  0.4452296472671975   F   F   F
  0.2220929046952875  0.9275114852143673  0.4079468165165281   F   F   F
  0.2524841733240493  0.4003044623728726  0.6493136344770249   F   F   F
  0.6298137671548005  0.8798201395019092  0.5941205448654543   F   F   F
  0.4101327335804896  0.7867926874171260  0.4234373851432949   F   F   F
  0.9176808209654013  0.1937685890776493  0.5082451459005242   F   F   F
  0.1324565266535416  0.4412664092445837  0.3322726622007863   F   F   F
  0.1550571491199264  0.3012535506243523  0.3105604161752922   F   F   F
  0.3729146135038945  0.1286373386743023  0.3479534200993726   F   F   F
  0.0343891227092215  0.2908149702919687  0.6333285494333296   F   F   F
  0.5725987290127676  0.2545984867969011  0.3200996781806822   F   F   F
  0.2460395783974434  0.7683473973185002  0.6499988221163733   F   F   F
  0.2072837671319121  0.6461353451156029  0.3103690611938177   F   F   F
  0.2752838800138733  0.3899215944620522  0.3673758273212613   F   F   F
  0.3652602807215004  0.5953169275942329  0.3422207943191111   F   F   F
  0.2262903184563925  0.0539111194580428  0.3581188824802055   F   F   F
  0.2411128032654233  0.1938085230403175  0.3293429668079639   F   F   F
  0.5011823944061149  0.8900319172896474  0.4548416832162587   F   F   F
  0.5500111567665371  0.8249399961536454  0.5341923164181779   F   F   F
  0.5449539119386628  0.6435913918593315  0.6337315249493471   F   F   F
  0.4785449625109877  0.1206720320999892  0.5962908030277490   F   F   F
  0.2625318852898957  0.6921194623655964  0.5686393751025349   F   F   F
  0.4431817017636845  0.8460081484305348  0.5813099593652566   F   F   F
  0.7654120647929190  0.6146861476864984  0.6494845466972237   F   F   F
  0.8447497227376815  0.8295921208746577  0.6230412514683223   F   F   F
  0.6403071952071429  0.7368525157462642  0.6219222397011919   F   F   F
  0.0083984901780880  0.0310926115912125  0.6031313078658798   F   F   F
  0.2842066925403728  0.9992972134157583  0.5940900672408489   F   F   F
  0.5033119010117844  0.9706982767307153  0.6291411011659633   F   F   F
  0.4393858970381572  0.4462158751252261  0.7219306928753113   T   T   T
  0.5476884432231728  0.5099975474848861  0.7304920337796332   T   T   T
  0.0831347474928563  0.6041505961417641  0.4064130837160320   F   F   F
  0.4091592754790554  0.7650898188531556  0.5740288912485454   F   F   F
  0.8416732872022052  0.4391834105397336  0.4678389696388976   F   F   F
  0.0169989619176221  0.9882123342596074  0.3936113541928137   F   F   F
  0.0146096748804609  0.2819205690602615  0.3910814136036507   F   F   F
  0.0096555500736102  0.1125939035361938  0.5724745471730444   F   F   F
  0.6100040908250364  0.6553527730225071  0.6110995310524387   F   F   F
  0.2139460689272497  0.4740664178754557  0.5096285660382307   F   F   F
  0.9149715960422924  0.7532912327687384  0.4962545438487922   F   F   F
  0.5204880107340912  0.1081859214341918  0.4259865881079392   F   F   F
  0.4184684678851482  0.1675787198066345  0.5894172884625064   F   F   F
  0.0833619964037737  0.1369023724024956  0.4069808717903314   F   F   F
  0.7018074027695107  0.0425765498339743  0.4873230277072054   F   F   F
  0.6649688228872392  0.8957677588151824  0.4374764361266443   F   F   F
  0.6500082122438258  0.5017573524036933  0.4301508871204760   F   F   F
  0.1983701158022271  0.9102125267359398  0.4639906909803457   F   F   F
  0.2144589291208092  0.3653257548181514  0.6035893109320369   F   F   F
  0.6735205410176519  0.8107239220575977  0.5950004164050355   F   F   F
  0.2165760497225335  0.6394995077266969  0.5385551508311650   F   F   F
  0.3686985866328598  0.7328580286506607  0.4592092972079129   F   F   F
  0.7972524980353626  0.8861246941347432  0.5956844916538770   F   F   F
  0.8797848834005535  0.9100049753630230  0.5120239846712025   F   F   F
  0.5773852510659481  0.5736547277426709  0.5123017033865409   F   F   F
  0.5898609014243164  0.1132859303062261  0.5251705390704799   F   F   F
  0.8580318094462172  0.1498435276905710  0.4951759473310489   F   F   F
  0.8353889166270889  0.6016299678367503  0.6459291216715144   F   F   F
  0.1336479890302300  0.3580491989711092  0.3568722791356791   F   F   F
  0.7905647565729268  0.2776695409816270  0.4418726542293072   F   F   F
  0.3990855650505267  0.1752251392788722  0.3960031981861079   F   F   F
  0.8559611659020234  0.7480400242537897  0.5965381671377088   F   F   F
  0.2828073226824799  0.9323842628941463  0.5496816628008645   F   F   F
  0.0229842005352054  0.3281778099289738  0.5022455100715746   F   F   F
  0.5744688530728226  0.6932203763079201  0.4355643604055430   F   F   F
  0.2301504224857425  0.7503307919034725  0.4519695445397645   F   F   F
  0.5940139875625903  0.2815161203434684  0.5482761732452417   F   F   F
  0.9750903231320862  0.2700150092997688  0.6026520777879654   F   F   F
  0.8888158273040574  0.0231392942291464  0.4242001869335610   F   F   F
  0.1047914141915243  0.1932984267356517  0.5176802537136282   F   F   F
  0.0480551291337221  0.7307673887676529  0.4826301941714348   F   F   F
  0.2319550445100376  0.2042574641335904  0.5609437793537708   F   F   F
  0.5613172753313478  0.2555155650650391  0.3812261074005363   F   F   F
  0.4765255742423662  0.6274119369352888  0.6216599964673151   F   F   F
  0.2814087406906935  0.7683886352617506  0.5975327504788126   F   F   F
  0.2084102935396075  0.6411301398339120  0.3717945352858223   F   F   F
  0.7404439196338330  0.7081674621046545  0.5358921839601436   F   F   F
  0.9867463664703706  0.9880949142816178  0.5505511677114256   F   F   F
  0.7030140260719833  0.7345484484924256  0.4342603982179796   F   F   F
  0.7878392190872106  0.0573353354623052  0.5768859335874126   F   F   F
  0.4562233662493895  0.3261818903569846  0.4092878915485585   F   F   F
  0.4497922183543039  0.9348060837558876  0.5947821188863855   F   F   F
  0.5088260847537569  0.0396092766368312  0.5864522994063321   F   F   F
  0.2441566199244960  0.3681366192112563  0.4209471039025985   F   F   F
  0.6584348119560346  0.3277324061785762  0.4503479098948588   F   F   F
  0.4606267957613710  0.3156244509408168  0.5287914856214826   F   F   F
  0.3372088360897649  0.5876728370958020  0.3990830096962270   F   F   F
  0.8034510950975005  0.4746554741346003  0.5797164564071480   F   F   F
  0.0691192576290689  0.8965894510340959  0.4805055068825652   F   F   F
  0.2118170470993022  0.1421846166420480  0.3735965933534686   F   F   F
  0.0781423248729212  0.4917152903917028  0.4946876202126234   F   F   F
  0.5574796572007585  0.8500703939597472  0.4747302534090920   F   F   F
  0.7184516884413910  0.5820991566482405  0.6096110405179260   F   F   F
  0.2865515924731312  0.2078320338790931  0.4591107728955208   F   F   F
  0.0879178202237583  0.6229445684418096  0.5676721734858745   F   F   F
  0.3530837450466038  0.0168985412331040  0.5789069894060574   F   F   F
  0.4871917747664867  0.4785216160535981  0.5729625218270655   F   F   F
  0.4891255792723258  0.5009443529045258  0.6913495637309330   T   T   T
 
  0.00000000E+00  0.00000000E+00  0.00000000E+00
  0.00000000E+00  0.00000000E+00  0.00000000E+00
  0.00000000E+00  0.00000000E+00  0.00000000E+00
  0.00000000E+00  0.00000000E+00  0.00000000E+00
  0.00000000E+00  0.00000000E+00  0.00000000E+00
  0.00000000E+00  0.00000000E+00  0.00000000E+00
  0.00000000E+00  0.00000000E+00  0.00000000E+00
  0.00000000E+00  0.00000000E+00  0.00000000E+00
  0.00000000E+00  0.00000000E+00  0.00000000E+00
  0.00000000E+00  0.00000000E+00  0.00000000E+00
  0.00000000E+00  0.00000000E+00  0.00000000E+00
  0.00000000E+00  0.00000000E+00  0.00000000E+00
  0.00000000E+00  0.00000000E+00  0.00000000E+00
  0.00000000E+00  0.00000000E+00  0.00000000E+00
  0.00000000E+00  0.00000000E+00  0.00000000E+00
  0.00000000E+00  0.00000000E+00  0.00000000E+00
  0.00000000E+00  0.00000000E+00  0.00000000E+00
  0.00000000E+00  0.00000000E+00  0.00000000E+00
  0.00000000E+00  0.00000000E+00  0.00000000E+00
  0.00000000E+00  0.00000000E+00  0.00000000E+00
  0.00000000E+00  0.00000000E+00  0.00000000E+00
  0.00000000E+00  0.00000000E+00  0.00000000E+00
  0.00000000E+00  0.00000000E+00  0.00000000E+00
  0.00000000E+00  0.00000000E+00  0.00000000E+00
  0.00000000E+00  0.00000000E+00  0.00000000E+00
  0.00000000E+00  0.00000000E+00  0.00000000E+00
  0.00000000E+00  0.00000000E+00  0.00000000E+00
  0.00000000E+00  0.00000000E+00  0.00000000E+00
  0.00000000E+00  0.00000000E+00  0.00000000E+00
  0.00000000E+00  0.00000000E+00  0.00000000E+00
  0.00000000E+00  0.00000000E+00  0.00000000E+00
  0.00000000E+00  0.00000000E+00  0.00000000E+00
  0.00000000E+00  0.00000000E+00  0.00000000E+00
  0.00000000E+00  0.00000000E+00  0.00000000E+00
  0.00000000E+00  0.00000000E+00  0.00000000E+00
  0.00000000E+00  0.00000000E+00  0.00000000E+00
  0.00000000E+00  0.00000000E+00  0.00000000E+00
  0.00000000E+00  0.00000000E+00  0.00000000E+00
  0.00000000E+00  0.00000000E+00  0.00000000E+00
  0.00000000E+00  0.00000000E+00  0.00000000E+00
  0.00000000E+00  0.00000000E+00  0.00000000E+00
  0.00000000E+00  0.00000000E+00  0.00000000E+00
  0.00000000E+00  0.00000000E+00  0.00000000E+00
  0.00000000E+00  0.00000000E+00  0.00000000E+00
  0.00000000E+00  0.00000000E+00  0.00000000E+00
  0.00000000E+00  0.00000000E+00  0.00000000E+00
  0.00000000E+00  0.00000000E+00  0.00000000E+00
  0.00000000E+00  0.00000000E+00  0.00000000E+00
  0.00000000E+00  0.00000000E+00  0.00000000E+00
  0.00000000E+00  0.00000000E+00  0.00000000E+00
  0.00000000E+00  0.00000000E+00  0.00000000E+00
  0.00000000E+00  0.00000000E+00  0.00000000E+00
  0.00000000E+00  0.00000000E+00  0.00000000E+00
  0.00000000E+00  0.00000000E+00  0.00000000E+00
  0.00000000E+00  0.00000000E+00  0.00000000E+00
  0.00000000E+00  0.00000000E+00  0.00000000E+00
  0.00000000E+00  0.00000000E+00  0.00000000E+00
  0.00000000E+00  0.00000000E+00  0.00000000E+00
  0.00000000E+00  0.00000000E+00  0.00000000E+00
  0.00000000E+00  0.00000000E+00  0.00000000E+00
  0.00000000E+00  0.00000000E+00  0.00000000E+00
  0.00000000E+00  0.00000000E+00  0.00000000E+00
  0.00000000E+00  0.00000000E+00  0.00000000E+00
  0.00000000E+00  0.00000000E+00  0.00000000E+00
  0.00000000E+00  0.00000000E+00  0.00000000E+00
  0.00000000E+00  0.00000000E+00  0.00000000E+00
  0.00000000E+00  0.00000000E+00  0.00000000E+00
  0.00000000E+00  0.00000000E+00  0.00000000E+00
  0.00000000E+00  0.00000000E+00  0.00000000E+00
  0.00000000E+00  0.00000000E+00  0.00000000E+00
  0.00000000E+00  0.00000000E+00  0.00000000E+00
  0.00000000E+00  0.00000000E+00  0.00000000E+00
  0.00000000E+00  0.00000000E+00  0.00000000E+00
  0.00000000E+00  0.00000000E+00  0.00000000E+00
  0.00000000E+00  0.00000000E+00  0.00000000E+00
  0.00000000E+00  0.00000000E+00  0.00000000E+00
  0.00000000E+00  0.00000000E+00  0.00000000E+00
  0.00000000E+00  0.00000000E+00  0.00000000E+00
  0.00000000E+00  0.00000000E+00  0.00000000E+00
  0.00000000E+00  0.00000000E+00  0.00000000E+00
  0.00000000E+00  0.00000000E+00  0.00000000E+00
  0.00000000E+00  0.00000000E+00  0.00000000E+00
  0.00000000E+00  0.00000000E+00  0.00000000E+00
  0.00000000E+00  0.00000000E+00  0.00000000E+00
  0.00000000E+00  0.00000000E+00  0.00000000E+00
  0.00000000E+00  0.00000000E+00  0.00000000E+00
  0.00000000E+00  0.00000000E+00  0.00000000E+00
  0.00000000E+00  0.00000000E+00  0.00000000E+00
  0.00000000E+00  0.00000000E+00  0.00000000E+00
  0.00000000E+00  0.00000000E+00  0.00000000E+00
  0.00000000E+00  0.00000000E+00  0.00000000E+00
  0.00000000E+00  0.00000000E+00  0.00000000E+00
  0.00000000E+00  0.00000000E+00  0.00000000E+00
  0.00000000E+00  0.00000000E+00  0.00000000E+00
  0.00000000E+00  0.00000000E+00  0.00000000E+00
  0.00000000E+00  0.00000000E+00  0.00000000E+00
  0.00000000E+00  0.00000000E+00  0.00000000E+00
  0.00000000E+00  0.00000000E+00  0.00000000E+00
  0.00000000E+00  0.00000000E+00  0.00000000E+00
  0.00000000E+00  0.00000000E+00  0.00000000E+00
  0.00000000E+00  0.00000000E+00  0.00000000E+00
  0.00000000E+00  0.00000000E+00  0.00000000E+00
  0.00000000E+00  0.00000000E+00  0.00000000E+00
  0.00000000E+00  0.00000000E+00  0.00000000E+00
  0.00000000E+00  0.00000000E+00  0.00000000E+00
  0.00000000E+00  0.00000000E+00  0.00000000E+00
  0.00000000E+00  0.00000000E+00  0.00000000E+00
  0.00000000E+00  0.00000000E+00  0.00000000E+00
  0.00000000E+00  0.00000000E+00  0.00000000E+00
  0.00000000E+00  0.00000000E+00  0.00000000E+00
  0.00000000E+00  0.00000000E+00  0.00000000E+00
  0.00000000E+00  0.00000000E+00  0.00000000E+00
  0.00000000E+00  0.00000000E+00  0.00000000E+00
  0.00000000E+00  0.00000000E+00  0.00000000E+00
  0.00000000E+00  0.00000000E+00  0.00000000E+00
  0.00000000E+00  0.00000000E+00  0.00000000E+00
  0.00000000E+00  0.00000000E+00  0.00000000E+00
  0.00000000E+00  0.00000000E+00  0.00000000E+00
  0.00000000E+00  0.00000000E+00  0.00000000E+00
  0.00000000E+00  0.00000000E+00  0.00000000E+00
  0.00000000E+00  0.00000000E+00  0.00000000E+00
  0.00000000E+00  0.00000000E+00  0.00000000E+00
  0.00000000E+00  0.00000000E+00  0.00000000E+00
  0.00000000E+00  0.00000000E+00  0.00000000E+00
  0.00000000E+00  0.00000000E+00  0.00000000E+00
  0.00000000E+00  0.00000000E+00  0.00000000E+00
  0.00000000E+00  0.00000000E+00  0.00000000E+00
  0.00000000E+00  0.00000000E+00  0.00000000E+00
  0.00000000E+00  0.00000000E+00  0.00000000E+00
  0.00000000E+00  0.00000000E+00  0.00000000E+00
  0.00000000E+00  0.00000000E+00  0.00000000E+00
  0.00000000E+00  0.00000000E+00  0.00000000E+00
  0.00000000E+00  0.00000000E+00  0.00000000E+00
  0.00000000E+00  0.00000000E+00  0.00000000E+00
  0.00000000E+00  0.00000000E+00  0.00000000E+00
  0.00000000E+00  0.00000000E+00  0.00000000E+00
  0.00000000E+00  0.00000000E+00  0.00000000E+00
  0.00000000E+00  0.00000000E+00  0.00000000E+00
  0.00000000E+00  0.00000000E+00  0.00000000E+00
  0.00000000E+00  0.00000000E+00  0.00000000E+00
  0.00000000E+00  0.00000000E+00  0.00000000E+00
  0.00000000E+00  0.00000000E+00  0.00000000E+00
  0.00000000E+00  0.00000000E+00  0.00000000E+00
  0.00000000E+00  0.00000000E+00  0.00000000E+00
  0.00000000E+00  0.00000000E+00  0.00000000E+00
  0.00000000E+00  0.00000000E+00  0.00000000E+00
  0.00000000E+00  0.00000000E+00  0.00000000E+00
  0.00000000E+00  0.00000000E+00  0.00000000E+00
  0.00000000E+00  0.00000000E+00  0.00000000E+00
  0.00000000E+00  0.00000000E+00  0.00000000E+00
  0.00000000E+00  0.00000000E+00  0.00000000E+00
  0.00000000E+00  0.00000000E+00  0.00000000E+00
  0.00000000E+00  0.00000000E+00  0.00000000E+00
  0.00000000E+00  0.00000000E+00  0.00000000E+00
  0.00000000E+00  0.00000000E+00  0.00000000E+00
  0.00000000E+00  0.00000000E+00  0.00000000E+00
  0.00000000E+00  0.00000000E+00  0.00000000E+00
  0.00000000E+00  0.00000000E+00  0.00000000E+00
  0.00000000E+00  0.00000000E+00  0.00000000E+00
  0.00000000E+00  0.00000000E+00  0.00000000E+00
  0.00000000E+00  0.00000000E+00  0.00000000E+00
  0.00000000E+00  0.00000000E+00  0.00000000E+00
  0.00000000E+00  0.00000000E+00  0.00000000E+00
  0.00000000E+00  0.00000000E+00  0.00000000E+00
  0.00000000E+00  0.00000000E+00  0.00000000E+00
  0.00000000E+00  0.00000000E+00  0.00000000E+00
  0.00000000E+00  0.00000000E+00  0.00000000E+00
  0.00000000E+00  0.00000000E+00  0.00000000E+00
  0.00000000E+00  0.00000000E+00  0.00000000E+00
  0.00000000E+00  0.00000000E+00  0.00000000E+00
  0.00000000E+00  0.00000000E+00  0.00000000E+00
  0.00000000E+00  0.00000000E+00  0.00000000E+00
  0.00000000E+00  0.00000000E+00  0.00000000E+00
  0.00000000E+00  0.00000000E+00  0.00000000E+00
  0.00000000E+00  0.00000000E+00  0.00000000E+00
  0.00000000E+00  0.00000000E+00  0.00000000E+00
  0.00000000E+00  0.00000000E+00  0.00000000E+00
  0.00000000E+00  0.00000000E+00  0.00000000E+00
  0.00000000E+00  0.00000000E+00  0.00000000E+00
  0.00000000E+00  0.00000000E+00  0.00000000E+00
  0.00000000E+00  0.00000000E+00  0.00000000E+00
  0.00000000E+00  0.00000000E+00  0.00000000E+00
  0.00000000E+00  0.00000000E+00  0.00000000E+00
  0.00000000E+00  0.00000000E+00  0.00000000E+00
  0.00000000E+00  0.00000000E+00  0.00000000E+00
  0.00000000E+00  0.00000000E+00  0.00000000E+00
  0.00000000E+00  0.00000000E+00  0.00000000E+00
  0.00000000E+00  0.00000000E+00  0.00000000E+00
  0.00000000E+00  0.00000000E+00  0.00000000E+00
  0.00000000E+00  0.00000000E+00  0.00000000E+00
  0.00000000E+00  0.00000000E+00  0.00000000E+00
  0.00000000E+00  0.00000000E+00  0.00000000E+00
  0.00000000E+00  0.00000000E+00  0.00000000E+00
  0.00000000E+00  0.00000000E+00  0.00000000E+00
  0.00000000E+00  0.00000000E+00  0.00000000E+00
  0.00000000E+00  0.00000000E+00  0.00000000E+00
  0.00000000E+00  0.00000000E+00  0.00000000E+00
  0.00000000E+00  0.00000000E+00  0.00000000E+00
  0.00000000E+00  0.00000000E+00  0.00000000E+00
  0.00000000E+00  0.00000000E+00  0.00000000E+00
  0.00000000E+00  0.00000000E+00  0.00000000E+00
  0.00000000E+00  0.00000000E+00  0.00000000E+00
  0.00000000E+00  0.00000000E+00  0.00000000E+00
  0.00000000E+00  0.00000000E+00  0.00000000E+00
  0.00000000E+00  0.00000000E+00  0.00000000E+00
  0.00000000E+00  0.00000000E+00  0.00000000E+00
  0.00000000E+00  0.00000000E+00  0.00000000E+00
  0.00000000E+00  0.00000000E+00  0.00000000E+00
  0.00000000E+00  0.00000000E+00  0.00000000E+00
  0.00000000E+00  0.00000000E+00  0.00000000E+00