 C  H  O Si  W                          
   1.0000000000000000     
    23.4112945954000011    0.0000000000000000    0.0000000000000000
     0.0000000000000000   18.1212369513999967    0.0000000000000000
     0.0000000000000000    0.0000000000000000   26.8833665072999999
   C    H    O    Si   W 
     2    48   154    65     1
Selective dynamics
Direct
  0.5457045643130485  0.5837173708813452  0.8100040404696216   T   T   T
  0.4972409556208177  0.6226970806242420  0.8068516163244581   T   T   T
  0.7612861171267156  0.1052057670170754  0.6510913621934407   T   T   T
  0.9264276758775409  0.2786689628389283  0.3563349293400009   F   F   F
  0.7933396966928186  0.2072788972396751  0.3734565163880745   F   F   F
  0.9745391127316694  0.9436086005532900  0.3253027906056829   F   F   F
  0.6257326647787878  0.9634728499897562  0.3752311999972449   F   F   F
  0.8205383986272707  0.9950066635937915  0.3689926296547128   F   F   F
  0.7499930738495308  0.1411787558468731  0.4580381926778543   F   F   F
  0.9152628264924019  0.2493928914309436  0.5101579729542252   T   T   T
  0.5834928632816769  0.3042635462298904  0.3059271726651787   F   F   F
  0.8928784830567551  0.3365905842896808  0.6171448223595348   T   T   T
  0.5846960670140788  0.3551013525913049  0.6166570961502487   T   T   T
  0.5940861870208494  0.8718644075992472  0.5772199100915287   T   T   T
  0.0344692162798594  0.3366956535960313  0.6521046275675033   T   T   T
  0.9352705076763712  0.4195142257503406  0.4541014552468710   F   F   F
  0.7461383787735159  0.5303119924306614  0.4224881911837883   F   F   F
  0.7992180890345395  0.3861380711686380  0.6352961053948221   T   T   T
  0.5911020174091490  0.5686828267211084  0.3780347436188976   F   F   F
  0.7184337867802384  0.6459327858135424  0.3834605945055571   F   F   F
  0.8411529142292764  0.5424265960688572  0.4195961671555111   F   F   F
  0.0047645486475076  0.6037981492295330  0.3577783004107076   F   F   F
  0.8283586993267491  0.7123566734117333  0.4679422553080954   F   F   F
  0.8732109168513276  0.5953647847149668  0.7221089831347598   T   T   T
  0.5199903139612303  0.9855647615614487  0.4217030704774842   F   F   F
  0.2230945721612159  0.9801548351936802  0.3932050219465495   F   F   F
  0.2163736907482345  0.2378514580028224  0.3192303272980936   F   F   F
  0.1575010503616241  0.3298062300070157  0.2789829167401123   F   F   F
  0.3415468765692253  0.1555857055490506  0.3307727584112428   F   F   F
  0.2227158616647102  0.0457589260230407  0.3227384335196248   F   F   F
  0.5117748067096599  0.8252178715199463  0.5468965245976420   T   T   T
  0.3760412060510134  0.2379955503331814  0.6463347338197352   T   T   T
  0.2440753763671850  0.0917814859448143  0.5970284779212207   T   T   T
  0.3153809713091036  0.4871364645735810  0.4424346656312608   F   F   F
  0.4089561837294582  0.4387348586869422  0.4056905975982730   F   F   F
  0.3984995032241372  0.7931136076499854  0.3887867966224334   F   F   F
  0.2442023571188656  0.6554300787776768  0.2943268807443218   F   F   F
  0.3117413815567005  0.4184757135367221  0.3692576443915385   F   F   F
  0.4054742948844066  0.5842796534641153  0.3388198885480591   F   F   F
  0.1393576205880507  0.4879736465794622  0.3519294596467617   F   F   F
  0.5932693451318087  0.6979871284243586  0.3523979868156601   F   F   F
  0.4690068301459220  0.8614274692379169  0.4438283837725479   F   F   F
  0.1216364295816987  0.3226123337156537  0.6105338506699738   T   T   T
  0.0698486404187761  0.6674916740547800  0.6447889749432534   T   T   T
  0.2401025812978759  0.3867680657038335  0.6827271234851651   T   T   T
  0.2485341935798360  0.8163211185586050  0.6686305279682685   T   T   T
  0.5866997339022433  0.6102270841717043  0.8177388562438992   T   T   T
  0.5459958385835293  0.5240785440694467  0.8043812870072244   T   T   T
  0.4965210433872755  0.6825441206623566  0.8119291921947394   T   T   T
  0.4563901152610086  0.5960672412568897  0.7987882918631115   T   T   T
  0.3689417337945073  0.6483550974205130  0.4390000177989322   F   F   F
  0.3468156499810249  0.5040338679473777  0.4203881275781143   F   F   F
  0.8616056644863193  0.5644710713304804  0.6944869916631475   T   T   T
  0.3495969673924932  0.9576356002160367  0.5286340861703351   T   T   T
  0.0335401483432065  0.9318902358719328  0.5287772185269475   T   T   T
  0.6363554822990451  0.0788685455599989  0.4893766723794641   F   F   F
  0.0686461464807948  0.0522654214745515  0.3951107345583225   F   F   F
  0.4518995424319527  0.1295623248292515  0.4205972814427668   F   F   F
  0.8058841492861291  0.2136501796918466  0.4831666074103040   F   F   F
  0.9734141829414042  0.1812964037720519  0.5981636314080419   T   T   T
  0.2747652928840907  0.2991728710101214  0.4485122250900346   F   F   F
  0.5563541661963498  0.7750912911781072  0.4417510122690658   F   F   F
  0.3925687753639977  0.9708167663026543  0.6178738753585975   T   T   T
  0.1775172398589788  0.3499684493290118  0.4052731245300478   F   F   F
  0.8666739526854812  0.6861167357223437  0.6379028302230338   T   T   T
  0.8656960102276017  0.9671769320775354  0.4670384592975196   F   F   F
  0.3010471365896024  0.7609368348742791  0.4579252567998537   F   F   F
  0.4216109456219570  0.2612522170148708  0.3795963030273342   F   F   F
  0.8108291643365746  0.4655036072218124  0.5199053880836075   T   T   T
  0.9843612543459201  0.0721104438488283  0.5207631711602900   T   T   T
  0.5175296771180697  0.4438297848355717  0.6261815437312706   T   T   T
  0.0345364061182565  0.9199477616519545  0.4294052572495062   F   F   F
  0.9630365419446250  0.3031953079439518  0.3512576249606170   F   F   F
  0.0696266904488567  0.3361057655302346  0.3763717815531962   F   F   F
  0.2082956575310035  0.7286442941956537  0.3953601014000157   F   F   F
  0.0389012629134911  0.4191019155796809  0.4991087535393461   F   F   F
  0.2400317959617979  0.2850011919492914  0.5882563882500733   T   T   T
  0.3972636426557727  0.1922596951004323  0.6435281517457412   T   T   T
  0.4622647916774909  0.5551619285473492  0.5938688175993576   T   T   T
  0.9098424116229964  0.7493292081165279  0.5574664507302032   T   T   T
  0.8691272713299156  0.1080433423588048  0.4422783307318099   F   F   F
  0.5725767945756743  0.6673318528661909  0.3761317316733468   F   F   F
  0.1424265590957958  0.1591254988132746  0.3759722435750490   F   F   F
  0.3518224517428123  0.7643333321883716  0.6069729089021507   T   T   T
  0.9109960497951874  0.8450475714254182  0.4831796236075121   F   F   F
  0.0613380104910135  0.5368717058331640  0.4422534820284341   F   F   F
  0.7083390277084121  0.5551665518466606  0.4199576800001736   F   F   F
  0.0754872572765848  0.8168068048942771  0.4829941554854784   F   F   F
  0.7004647711973604  0.8275557150113073  0.4326352913293690   F   F   F
  0.7303047286864555  0.0492782992355743  0.5429336334091559   T   T   T
  0.9186479711846118  0.3004436759865570  0.6319618830120817   T   T   T
  0.7356423973239714  0.8545536086298853  0.6127723566127656   T   T   T
  0.6251219543867705  0.5273940020615839  0.4863787091564404   F   F   F
  0.5565732987385132  0.6297030403834256  0.4672494240254110   F   F   F
  0.4263624130222539  0.2449983476685915  0.5545284606534295   T   T   T
  0.9782900938336425  0.7282436336050182  0.4767956400891720   F   F   F
  0.6546723080439207  0.5958518077035464  0.6337837851288484   T   T   T
  0.3971925293305461  0.7460493471519527  0.5150079562507344   T   T   T
  0.6026900685395375  0.5176654517715136  0.3856709925442061   F   F   F
  0.7187526638385719  0.6331033473823950  0.5572439960736801   T   T   T
  0.1466288572709402  0.3637137628976106  0.6187305735556805   T   T   T
  0.0667179001216311  0.5485442108746170  0.5420248231051374   T   T   T
  0.8189200373056593  0.8853112132649841  0.5365580592713997   T   T   T
  0.8282155306614527  0.3553851427237973  0.4519033357708793   F   F   F
  0.5278982204454152  0.2975981826928091  0.5318885516127949   T   T   T
  0.7374762083834554  0.5009461653362450  0.5950719101182500   T   T   T
  0.5574339360995921  0.1724311051770471  0.3949085375269945   F   F   F
  0.8059640829904495  0.2564125704700402  0.3832928600033014   F   F   F
  0.2374462167629616  0.9532507504721153  0.5079195554207132   F   F   F
  0.6933550154175094  0.7785603442236493  0.5405904196040652   T   T   T
  0.9239576617401184  0.9498469870295807  0.5528930042554592   T   T   T
  0.5257372223541736  0.3177811195808147  0.3985559351687087   F   F   F
  0.4699247119218271  0.9888072970655415  0.5453469901443029   T   T   T
  0.8378178977726805  0.0951329863126347  0.5398159085197918   T   T   T
  0.5379032530424510  0.1164174893117362  0.4862370923690094   F   F   F
  0.3501934425152129  0.1866087324322407  0.4396363938456389   F   F   F
  0.0117603228167908  0.9624138998997935  0.3352437574830063   F   F   F
  0.4586486487788619  0.6003492227831799  0.6818029053261299   T   T   T
  0.6549652215522386  0.9253975043083074  0.3792282539811964   F   F   F
  0.0762933429470323  0.6860262574042792  0.4358810225764742   F   F   F
  0.4527409362127841  0.4033178101790327  0.5514603576219059   T   T   T
  0.7192194366265099  0.7004208513439565  0.3795829994963285   F   F   F
  0.4509561682172958  0.7011578669248095  0.5979624898191744   T   T   T
  0.7525510591055777  0.7093245754016806  0.4762954835743187   F   F   F
  0.7787386737402642  0.1222482513913050  0.6204764375056300   T   T   T
  0.9932746155468877  0.3080134734220721  0.4484029789284989   F   F   F
  0.5320009025377956  0.5088588465571178  0.5298400178117433   T   T   T
  0.8167775852155614  0.4990617344698620  0.4234422052650615   F   F   F
  0.2353774814104597  0.1433822840431205  0.6043342718300835   T   T   T
  0.2035333057163413  0.8307013160788728  0.4705336293601903   F   F   F
  0.2400396645862273  0.5584158301154289  0.5228276932634728   T   T   T
  0.0611939778452637  0.6256891301012146  0.6236302036530716   T   T   T
  0.0460740722049948  0.6023466921755443  0.3541786312221902   F   F   F
  0.8011883440924805  0.9798475285087918  0.6057449358455287   T   T   T
  0.5379909097114037  0.0276974917800175  0.4045027517534763   F   F   F
  0.6059388307437032  0.3122906594667896  0.6050828534014840   T   T   T
  0.8615461075340960  0.0040808494918636  0.3692063291070653   F   F   F
  0.0949113079819810  0.1490228354028815  0.4670823258906296   F   F   F
  0.1716280693408763  0.2050775977794999  0.5305125310225733   T   T   T
  0.6409886548841044  0.7044387202342079  0.4548155821771758   F   F   F
  0.4367877834064799  0.4097684809000555  0.3864132536704119   F   F   F
  0.5750560599735905  0.0580303930904407  0.5710256483574341   T   T   T
  0.1514377462021059  0.5934080234999826  0.3889583608347777   F   F   F
  0.2677397900769023  0.6023375314212132  0.3923062966030031   F   F   F
  0.4402584600309112  0.3221981823130449  0.4703244327181508   F   F   F
  0.2380096658898907  0.1585111293566044  0.4299011866524154   F   F   F
  0.0731877307640190  0.1497458295167746  0.5623984597667118   T   T   T
  0.8451463912027037  0.5484567774553710  0.5972771419463356   T   T   T
  0.6211794284267498  0.2799398765994923  0.4109054511829981   F   F   F
  0.6026669933739228  0.8915266658304475  0.4672234595428861   F   F   F
  0.0313853912181870  0.1952898291212790  0.3889918752683101   F   F   F
  0.6083072993567242  0.1952222492386255  0.5471843663875120   T   T   T
  0.1327997263300347  0.9383546445758171  0.4794870772378772   F   F   F
  0.0801073727347870  0.2802871464718848  0.5118161649470920   T   T   T
  0.3732203911751029  0.1032073364723090  0.5667239573060598   T   T   T
  0.0670774206437343  0.6970475908280420  0.5355901634229099   T   T   T
  0.6664883802866157  0.4153848775992941  0.4300115561107631   F   F   F
  0.7994131800828441  0.7304292972538065  0.5643095439947743   T   T   T
  0.7038385586134339  0.9572084333329656  0.4701845621740759   F   F   F
  0.5956488399073621  0.6328865777414876  0.5550023239776749   T   T   T
  0.7228402998664549  0.2936846541148483  0.4516681052539582   F   F   F
  0.9774051938001023  0.3145847805147923  0.5472514081610882   T   T   T
  0.1586193163336276  0.6300275683804131  0.5706679321941550   T   T   T
  0.6333338448107071  0.3267830793000925  0.5078007023299378   F   F   F
  0.8225854912393586  0.4012499589906682  0.6072683694999270   T   T   T
  0.9585781980894978  0.0272430444030434  0.4169530046787955   F   F   F
  0.2823687957856933  0.1951136347447360  0.5186172360369028   T   T   T
  0.2492575497532457  0.4430328891806070  0.4610556955705079   F   F   F
  0.2753196977630452  0.8478124451353111  0.5662171966754386   T   T   T
  0.2036681493187373  0.6855731694819696  0.4868887178860462   F   F   F
  0.1471234534495878  0.4760698767055516  0.4925449251270066   F   F   F
  0.2251949083601588  0.4218942601243185  0.5565863314758417   T   T   T
  0.9114169782859136  0.4527445982196738  0.4737188145108959   F   F   F
  0.8697881761182842  0.7045601105568409  0.4641535209108483   F   F   F
  0.7381202078118392  0.0928346185702935  0.4452296472671975   F   F   F
  0.2221834364607460  0.9297811898377830  0.4079468165165281   F   F   F
  0.2514575329456719  0.4015418900024272  0.6495393661357340   T   T   T
  0.6310171761907171  0.8848574869165731  0.5925568203655160   T   T   T
  0.4102232653459481  0.7890623920405417  0.4234373851432949   F   F   F
  0.9177713527308597  0.1960382937010650  0.5082451459005242   F   F   F
  0.1325470584190001  0.4435361138679994  0.3322726622007863   F   F   F
  0.1551476808853849  0.3035232552477680  0.3105604161752922   F   F   F
  0.3730051452693530  0.1309070432977180  0.3479534200993726   F   F   F
  0.0349181487328494  0.2912904891033463  0.6329588209952348   T   T   T
  0.5726892607782261  0.2568681914203168  0.3200996781806822   F   F   F
  0.2460778403434247  0.7718691801313042  0.6486489630766101   T   T   T
  0.2073742988973706  0.6484050497390186  0.3103690611938177   F   F   F
  0.2753744117793318  0.3921912990854679  0.3673758273212613   F   F   F
  0.3653508124869589  0.5975866322176486  0.3422207943191111   F   F   F
  0.2263808502218509  0.0561808240814585  0.3581188824802055   F   F   F
  0.2412033350308818  0.1960782276637332  0.3293429668079639   F   F   F
  0.5012729261715734  0.8923016219130631  0.4548416832162587   F   F   F
  0.5506422787171985  0.8273589005168986  0.5342896709384917   T   T   T
  0.5472448859306809  0.6577311347633739  0.6372539816072020   T   T   T
  0.4788448118006627  0.1203873464264191  0.5957269028581891   T   T   T
  0.2634388131670136  0.6933206670763639  0.5683894990145433   T   T   T
  0.4439774407566048  0.8454765696923587  0.5811163601925529   T   T   T
  0.7661227831324666  0.6185685910975209  0.6492675632115663   T   T   T
  0.8453802132629633  0.8330560390658874  0.6228255973320032   T   T   T
  0.6428351705129387  0.7413753213135479  0.6205201376427354   T   T   T
  0.0080057099093693  0.0333768900502420  0.6029010032214899   T   T   T
  0.2856816257707919  0.0003938990807484  0.5925461738716322   T   T   T
  0.5041965951288674  0.9703065011282561  0.6280740316306037   T   T   T
  0.4934676420462694  0.4586501147880924  0.7363564630503063   T   T   T
  0.0832252792583148  0.6064203007651798  0.4064130837160320   F   F   F
  0.4098064660532899  0.7646261336333922  0.5741349220835659   T   T   T
  0.8417638189676637  0.4414531151631493  0.4678389696388976   F   F   F
  0.0170894936830805  0.9904820388830231  0.3936113541928137   F   F   F
  0.0147002066459194  0.2841902736836772  0.3910814136036507   F   F   F
  0.0095817822822966  0.1147150653231677  0.5721454151240053   T   T   T
  0.6110805411990938  0.6603553948770937  0.6117133931296905   T   T   T
  0.2139892962346721  0.4755372513262088  0.5098090383921345   T   T   T
  0.9150621278077509  0.7555609373921541  0.4962545438487922   F   F   F
  0.5205785424995497  0.1104556260576075  0.4259865881079392   F   F   F
  0.4190098432400546  0.1674701107692300  0.5881439337122103   T   T   T
  0.0834525281692322  0.1391720770259113  0.4069808717903314   F   F   F
  0.7018979345349692  0.0448462544573900  0.4873230277072054   F   F   F
  0.6650593546526977  0.8980374634385981  0.4374764361266443   F   F   F
  0.6500987440092842  0.5040270570271090  0.4301508871204760   F   F   F
  0.1984606475676856  0.9124822313593555  0.4639906909803457   F   F   F
  0.2144552569712772  0.3658628551500911  0.6034101653537576   T   T   T
  0.6746647447559226  0.8157829897179099  0.5939417052438642   T   T   T
  0.2169018805840182  0.6413396165020089  0.5384489551427549   T   T   T
  0.3687891183983183  0.7351277332740764  0.4592092972079129   F   F   F
  0.7980280180992381  0.8898006505865226  0.5956123480890341   T   T   T
  0.8799355645723637  0.9123983164967768  0.5119419997979904   T   T   T
  0.5765240098856808  0.5749533926762922  0.5120238027724966   T   T   T
  0.5899977593769492  0.1153966601582042  0.5251586079279420   T   T   T
  0.8581223412116756  0.1521132323139867  0.4951759473310489   F   F   F
  0.8359850134372735  0.6051999701313520  0.6449845870092972   T   T   T
  0.1337385207956885  0.3603189035945249  0.3568722791356791   F   F   F
  0.7906552883383853  0.2799392456050427  0.4418726542293072   F   F   F
  0.3991760968159852  0.1774948439022879  0.3960031981861079   F   F   F
  0.8561749254655737  0.7512453524580778  0.5966002116602596   T   T   T
  0.2841362280990438  0.9334502865925174  0.5482942504272330   T   T   T
  0.0230747323006639  0.3304475145523895  0.5022455100715746   F   F   F
  0.5745593848382811  0.6954900809313358  0.4355643604055430   F   F   F
  0.2302409542512009  0.7526004965268882  0.4519695445397645   F   F   F
  0.5941369434976025  0.2835916398711547  0.5483533148587156   T   T   T
  0.9752539652085588  0.2719882195774446  0.6024534255201033   T   T   T
  0.8889063590695159  0.0254089988525621  0.4242001869335610   F   F   F
  0.1048424334083080  0.1955002517687490  0.5177027269419341   T   T   T
  0.0481456608991806  0.7330370933910686  0.4826301941714348   F   F   F
  0.2320405093441877  0.2053812907457058  0.5608466646737256   T   T   T
  0.5614078070968063  0.2577852696884548  0.3812261074005363   F   F   F
  0.4807882306474625  0.6323414403892400  0.6265621222437403   T   T   T
  0.2827183862878329  0.7697030177774522  0.5969153123358311   T   T   T
  0.2085008253050660  0.6433998444573277  0.3717945352858223   F   F   F
  0.7404586602193817  0.7122132081072152  0.5358206039595572   T   T   T
  0.9867569090485517  0.9903241186212881  0.5503169004518540   T   T   T
  0.7031045578374417  0.7368181531158413  0.4342603982179796   F   F   F
  0.7879299122235182  0.0602618970378828  0.5767811622129599   T   T   T
  0.4563138980148480  0.3284515949804003  0.4092878915485585   F   F   F
  0.4507765308553928  0.9346454287209767  0.5935715992536430   T   T   T
  0.5095378305159315  0.0396543936495064  0.5856667032966101   T   T   T
  0.2442471516899545  0.3704063238346720  0.4209471039025985   F   F   F
  0.6585253437214931  0.3300021108019919  0.4503479098948588   F   F   F
  0.4606438562901474  0.3162250220252361  0.5284022912951087   T   T   T
  0.3372993678552234  0.5899425417192177  0.3990830096962270   F   F   F
  0.8040075779798954  0.4789303397655615  0.5793905994709121   T   T   T
  0.0692097893945274  0.8988591556575116  0.4805055068825652   F   F   F
  0.2119075788647606  0.1444543212654636  0.3735965933534686   F   F   F
  0.0782328566383796  0.4939849950151185  0.4946876202126234   F   F   F
  0.5575701889662170  0.8523400985831628  0.4747302534090920   F   F   F
  0.7187602914691880  0.5862206310884162  0.6097159957966838   T   T   T
  0.2866421242385897  0.2101017385025088  0.4591107728955208   F   F   F
  0.0883995660123063  0.6256439129801379  0.5676587267022981   T   T   T
  0.3543538286441716  0.0177146398815964  0.5766849232327829   T   T   T
  0.4898650307126715  0.4749017626990835  0.5722579507273053   T   T   T
  0.4835660472114753  0.4991288878214135  0.6796309202052981   T   T   T

  0.00000000E+00  0.00000000E+00  0.00000000E+00
  0.00000000E+00  0.00000000E+00  0.00000000E+00
  0.00000000E+00  0.00000000E+00  0.00000000E+00
  0.00000000E+00  0.00000000E+00  0.00000000E+00
  0.00000000E+00  0.00000000E+00  0.00000000E+00
  0.00000000E+00  0.00000000E+00  0.00000000E+00
  0.00000000E+00  0.00000000E+00  0.00000000E+00
  0.00000000E+00  0.00000000E+00  0.00000000E+00
  0.00000000E+00  0.00000000E+00  0.00000000E+00
  0.00000000E+00  0.00000000E+00  0.00000000E+00
  0.00000000E+00  0.00000000E+00  0.00000000E+00
  0.00000000E+00  0.00000000E+00  0.00000000E+00
  0.00000000E+00  0.00000000E+00  0.00000000E+00
  0.00000000E+00  0.00000000E+00  0.00000000E+00
  0.00000000E+00  0.00000000E+00  0.00000000E+00
  0.00000000E+00  0.00000000E+00  0.00000000E+00
  0.00000000E+00  0.00000000E+00  0.00000000E+00
  0.00000000E+00  0.00000000E+00  0.00000000E+00
  0.00000000E+00  0.00000000E+00  0.00000000E+00
  0.00000000E+00  0.00000000E+00  0.00000000E+00
  0.00000000E+00  0.00000000E+00  0.00000000E+00
  0.00000000E+00  0.00000000E+00  0.00000000E+00
  0.00000000E+00  0.00000000E+00  0.00000000E+00
  0.00000000E+00  0.00000000E+00  0.00000000E+00
  0.00000000E+00  0.00000000E+00  0.00000000E+00
  0.00000000E+00  0.00000000E+00  0.00000000E+00
  0.00000000E+00  0.00000000E+00  0.00000000E+00
  0.00000000E+00  0.00000000E+00  0.00000000E+00
  0.00000000E+00  0.00000000E+00  0.00000000E+00
  0.00000000E+00  0.00000000E+00  0.00000000E+00
  0.00000000E+00  0.00000000E+00  0.00000000E+00
  0.00000000E+00  0.00000000E+00  0.00000000E+00
  0.00000000E+00  0.00000000E+00  0.00000000E+00
  0.00000000E+00  0.00000000E+00  0.00000000E+00
  0.00000000E+00  0.00000000E+00  0.00000000E+00
  0.00000000E+00  0.00000000E+00  0.00000000E+00
  0.00000000E+00  0.00000000E+00  0.00000000E+00
  0.00000000E+00  0.00000000E+00  0.00000000E+00
  0.00000000E+00  0.00000000E+00  0.00000000E+00
  0.00000000E+00  0.00000000E+00  0.00000000E+00
  0.00000000E+00  0.00000000E+00  0.00000000E+00
  0.00000000E+00  0.00000000E+00  0.00000000E+00
  0.00000000E+00  0.00000000E+00  0.00000000E+00
  0.00000000E+00  0.00000000E+00  0.00000000E+00
  0.00000000E+00  0.00000000E+00  0.00000000E+00
  0.00000000E+00  0.00000000E+00  0.00000000E+00
  0.00000000E+00  0.00000000E+00  0.00000000E+00
  0.00000000E+00  0.00000000E+00  0.00000000E+00
  0.00000000E+00  0.00000000E+00  0.00000000E+00
  0.00000000E+00  0.00000000E+00  0.00000000E+00
  0.00000000E+00  0.00000000E+00  0.00000000E+00
  0.00000000E+00  0.00000000E+00  0.00000000E+00
  0.00000000E+00  0.00000000E+00  0.00000000E+00
  0.00000000E+00  0.00000000E+00  0.00000000E+00
  0.00000000E+00  0.00000000E+00  0.00000000E+00
  0.00000000E+00  0.00000000E+00  0.00000000E+00
  0.00000000E+00  0.00000000E+00  0.00000000E+00
  0.00000000E+00  0.00000000E+00  0.00000000E+00
  0.00000000E+00  0.00000000E+00  0.00000000E+00
  0.00000000E+00  0.00000000E+00  0.00000000E+00
  0.00000000E+00  0.00000000E+00  0.00000000E+00
  0.00000000E+00  0.00000000E+00  0.00000000E+00
  0.00000000E+00  0.00000000E+00  0.00000000E+00
  0.00000000E+00  0.00000000E+00  0.00000000E+00
  0.00000000E+00  0.00000000E+00  0.00000000E+00
  0.00000000E+00  0.00000000E+00  0.00000000E+00
  0.00000000E+00  0.00000000E+00  0.00000000E+00
  0.00000000E+00  0.00000000E+00  0.00000000E+00
  0.00000000E+00  0.00000000E+00  0.00000000E+00
  0.00000000E+00  0.00000000E+00  0.00000000E+00
  0.00000000E+00  0.00000000E+00  0.00000000E+00
  0.00000000E+00  0.00000000E+00  0.00000000E+00
  0.00000000E+00  0.00000000E+00  0.00000000E+00
  0.00000000E+00  0.00000000E+00  0.00000000E+00
  0.00000000E+00  0.00000000E+00  0.00000000E+00
  0.00000000E+00  0.00000000E+00  0.00000000E+00
  0.00000000E+00  0.00000000E+00  0.00000000E+00
  0.00000000E+00  0.00000000E+00  0.00000000E+00
  0.00000000E+00  0.00000000E+00  0.00000000E+00
  0.00000000E+00  0.00000000E+00  0.00000000E+00
  0.00000000E+00  0.00000000E+00  0.00000000E+00
  0.00000000E+00  0.00000000E+00  0.00000000E+00
  0.00000000E+00  0.00000000E+00  0.00000000E+00
  0.00000000E+00  0.00000000E+00  0.00000000E+00
  0.00000000E+00  0.00000000E+00  0.00000000E+00
  0.00000000E+00  0.00000000E+00  0.00000000E+00
  0.00000000E+00  0.00000000E+00  0.00000000E+00
  0.00000000E+00  0.00000000E+00  0.00000000E+00
  0.00000000E+00  0.00000000E+00  0.00000000E+00
  0.00000000E+00  0.00000000E+00  0.00000000E+00
  0.00000000E+00  0.00000000E+00  0.00000000E+00
  0.00000000E+00  0.00000000E+00  0.00000000E+00
  0.00000000E+00  0.00000000E+00  0.00000000E+00
  0.00000000E+00  0.00000000E+00  0.00000000E+00
  0.00000000E+00  0.00000000E+00  0.00000000E+00
  0.00000000E+00  0.00000000E+00  0.00000000E+00
  0.00000000E+00  0.00000000E+00  0.00000000E+00
  0.00000000E+00  0.00000000E+00  0.00000000E+00
  0.00000000E+00  0.00000000E+00  0.00000000E+00
  0.00000000E+00  0.00000000E+00  0.00000000E+00
  0.00000000E+00  0.00000000E+00  0.00000000E+00
  0.00000000E+00  0.00000000E+00  0.00000000E+00
  0.00000000E+00  0.00000000E+00  0.00000000E+00
  0.00000000E+00  0.00000000E+00  0.00000000E+00
  0.00000000E+00  0.00000000E+00  0.00000000E+00
  0.00000000E+00  0.00000000E+00  0.00000000E+00
  0.00000000E+00  0.00000000E+00  0.00000000E+00
  0.00000000E+00  0.00000000E+00  0.00000000E+00
  0.00000000E+00  0.00000000E+00  0.00000000E+00
  0.00000000E+00  0.00000000E+00  0.00000000E+00
  0.00000000E+00  0.00000000E+00  0.00000000E+00
  0.00000000E+00  0.00000000E+00  0.00000000E+00
  0.00000000E+00  0.00000000E+00  0.00000000E+00
  0.00000000E+00  0.00000000E+00  0.00000000E+00
  0.00000000E+00  0.00000000E+00  0.00000000E+00
  0.00000000E+00  0.00000000E+00  0.00000000E+00
  0.00000000E+00  0.00000000E+00  0.00000000E+00
  0.00000000E+00  0.00000000E+00  0.00000000E+00
  0.00000000E+00  0.00000000E+00  0.00000000E+00
  0.00000000E+00  0.00000000E+00  0.00000000E+00
  0.00000000E+00  0.00000000E+00  0.00000000E+00
  0.00000000E+00  0.00000000E+00  0.00000000E+00
  0.00000000E+00  0.00000000E+00  0.00000000E+00
  0.00000000E+00  0.00000000E+00  0.00000000E+00
  0.00000000E+00  0.00000000E+00  0.00000000E+00
  0.00000000E+00  0.00000000E+00  0.00000000E+00
  0.00000000E+00  0.00000000E+00  0.00000000E+00
  0.00000000E+00  0.00000000E+00  0.00000000E+00
  0.00000000E+00  0.00000000E+00  0.00000000E+00
  0.00000000E+00  0.00000000E+00  0.00000000E+00
  0.00000000E+00  0.00000000E+00  0.00000000E+00
  0.00000000E+00  0.00000000E+00  0.00000000E+00
  0.00000000E+00  0.00000000E+00  0.00000000E+00
  0.00000000E+00  0.00000000E+00  0.00000000E+00
  0.00000000E+00  0.00000000E+00  0.00000000E+00
  0.00000000E+00  0.00000000E+00  0.00000000E+00
  0.00000000E+00  0.00000000E+00  0.00000000E+00
  0.00000000E+00  0.00000000E+00  0.00000000E+00
  0.00000000E+00  0.00000000E+00  0.00000000E+00
  0.00000000E+00  0.00000000E+00  0.00000000E+00
  0.00000000E+00  0.00000000E+00  0.00000000E+00
  0.00000000E+00  0.00000000E+00  0.00000000E+00
  0.00000000E+00  0.00000000E+00  0.00000000E+00
  0.00000000E+00  0.00000000E+00  0.00000000E+00
  0.00000000E+00  0.00000000E+00  0.00000000E+00
  0.00000000E+00  0.00000000E+00  0.00000000E+00
  0.00000000E+00  0.00000000E+00  0.00000000E+00
  0.00000000E+00  0.00000000E+00  0.00000000E+00
  0.00000000E+00  0.00000000E+00  0.00000000E+00
  0.00000000E+00  0.00000000E+00  0.00000000E+00
  0.00000000E+00  0.00000000E+00  0.00000000E+00
  0.00000000E+00  0.00000000E+00  0.00000000E+00
  0.00000000E+00  0.00000000E+00  0.00000000E+00
  0.00000000E+00  0.00000000E+00  0.00000000E+00
  0.00000000E+00  0.00000000E+00  0.00000000E+00
  0.00000000E+00  0.00000000E+00  0.00000000E+00
  0.00000000E+00  0.00000000E+00  0.00000000E+00
  0.00000000E+00  0.00000000E+00  0.00000000E+00
  0.00000000E+00  0.00000000E+00  0.00000000E+00
  0.00000000E+00  0.00000000E+00  0.00000000E+00
  0.00000000E+00  0.00000000E+00  0.00000000E+00
  0.00000000E+00  0.00000000E+00  0.00000000E+00
  0.00000000E+00  0.00000000E+00  0.00000000E+00
  0.00000000E+00  0.00000000E+00  0.00000000E+00
  0.00000000E+00  0.00000000E+00  0.00000000E+00
  0.00000000E+00  0.00000000E+00  0.00000000E+00
  0.00000000E+00  0.00000000E+00  0.00000000E+00
  0.00000000E+00  0.00000000E+00  0.00000000E+00
  0.00000000E+00  0.00000000E+00  0.00000000E+00
  0.00000000E+00  0.00000000E+00  0.00000000E+00
  0.00000000E+00  0.00000000E+00  0.00000000E+00
  0.00000000E+00  0.00000000E+00  0.00000000E+00
  0.00000000E+00  0.00000000E+00  0.00000000E+00
  0.00000000E+00  0.00000000E+00  0.00000000E+00
  0.00000000E+00  0.00000000E+00  0.00000000E+00
  0.00000000E+00  0.00000000E+00  0.00000000E+00
  0.00000000E+00  0.00000000E+00  0.00000000E+00
  0.00000000E+00  0.00000000E+00  0.00000000E+00
  0.00000000E+00  0.00000000E+00  0.00000000E+00
  0.00000000E+00  0.00000000E+00  0.00000000E+00
  0.00000000E+00  0.00000000E+00  0.00000000E+00
  0.00000000E+00  0.00000000E+00  0.00000000E+00
  0.00000000E+00  0.00000000E+00  0.00000000E+00
  0.00000000E+00  0.00000000E+00  0.00000000E+00
  0.00000000E+00  0.00000000E+00  0.00000000E+00
  0.00000000E+00  0.00000000E+00  0.00000000E+00
  0.00000000E+00  0.00000000E+00  0.00000000E+00
  0.00000000E+00  0.00000000E+00  0.00000000E+00
  0.00000000E+00  0.00000000E+00  0.00000000E+00
  0.00000000E+00  0.00000000E+00  0.00000000E+00
  0.00000000E+00  0.00000000E+00  0.00000000E+00
  0.00000000E+00  0.00000000E+00  0.00000000E+00
  0.00000000E+00  0.00000000E+00  0.00000000E+00
  0.00000000E+00  0.00000000E+00  0.00000000E+00
  0.00000000E+00  0.00000000E+00  0.00000000E+00
  0.00000000E+00  0.00000000E+00  0.00000000E+00
  0.00000000E+00  0.00000000E+00  0.00000000E+00
  0.00000000E+00  0.00000000E+00  0.00000000E+00
  0.00000000E+00  0.00000000E+00  0.00000000E+00
  0.00000000E+00  0.00000000E+00  0.00000000E+00
  0.00000000E+00  0.00000000E+00  0.00000000E+00
  0.00000000E+00  0.00000000E+00  0.00000000E+00