 C  H  O Si  W                          
    1.000000000000000     
    23.4112945954000011    0.0000000000000000    0.0000000000000000
     0.0000000000000000   18.1212369513999967    0.0000000000000000
     0.0000000000000000    0.0000000000000000   26.8833665072999999
   C    H    O    Si   W 
     1    46   154    65     1
Selective dynamics
Direct
  0.5344399017523003  0.4953764944532040  0.7409647876674512   T   T   T
  0.7606918200514912  0.1037365470728560  0.6510609772918272   F   F   F
  0.9264276758305172  0.2786689626896504  0.3563349293400009   F   F   F
  0.7933396966457948  0.2072788970903972  0.3734565163880745   F   F   F
  0.9745391126846457  0.9436086004040121  0.3253027906056829   F   F   F
  0.6257326647317640  0.9634728498404783  0.3752311999972449   F   F   F
  0.8205383985802470  0.9950066634445136  0.3689926296547128   F   F   F
  0.7499930738025071  0.1411787556975952  0.4580381926778543   F   F   F
  0.9154298651190942  0.2494598905602388  0.5092169215476545   F   F   F
  0.5834928632346532  0.3042635460806125  0.3059271726651787   F   F   F
  0.8914025650589181  0.3347901874659982  0.6158552988480537   F   F   F
  0.5900848632282703  0.3603292277056411  0.6143681028705217   F   F   F
  0.5934553312575943  0.8708178817810790  0.5780150223934086   F   F   F
  0.0339329232800836  0.3378009072543904  0.6520637244690519   F   F   F
  0.9352705076293475  0.4195142256010627  0.4541014552468710   F   F   F
  0.7461383787264921  0.5303119922813835  0.4224881911837883   F   F   F
  0.7983800204314520  0.3827973006321699  0.6351970628018364   F   F   F
  0.5911020173621253  0.5686828265718304  0.3780347436188976   F   F   F
  0.7184337867332147  0.6459327856642645  0.3834605945055571   F   F   F
  0.8411529141822527  0.5424265959195793  0.4195961671555111   F   F   F
  0.0047645486004839  0.6037981490802551  0.3577783004107076   F   F   F
  0.8283586992797254  0.7123566732624553  0.4679422553080954   F   F   F
  0.8784331071045486  0.5986177442776537  0.7207783591493921   F   F   F
  0.5199903139142066  0.9855647614121708  0.4217030704774842   F   F   F
  0.2230945721141921  0.9801548350444023  0.3932050219465495   F   F   F
  0.2163736907012108  0.2378514578535444  0.3192303272980936   F   F   F
  0.1575010503146004  0.3298062298577378  0.2789829167401123   F   F   F
  0.3415468765222016  0.1555857053997727  0.3307727584112428   F   F   F
  0.2227158616176865  0.0457589258737627  0.3227384335196248   F   F   F
  0.5112495640108605  0.8258578701810819  0.5467466784539710   F   F   F
  0.3792754256985020  0.2430169529467037  0.6474937225897222   F   F   F
  0.2436307628970837  0.0930144324376343  0.5985706336500485   F   F   F
  0.3153809712620799  0.4871364644243030  0.4424346656312608   F   F   F
  0.4089561836824345  0.4387348585376643  0.4056905975982730   F   F   F
  0.3984995031771135  0.7931136075007075  0.3887867966224334   F   F   F
  0.2442023570718419  0.6554300786283989  0.2943268807443218   F   F   F
  0.3117413815096768  0.4184757133874442  0.3692576443915385   F   F   F
  0.4054742948373828  0.5842796533148373  0.3388198885480591   F   F   F
  0.1393576205410270  0.4879736464301843  0.3519294596467617   F   F   F
  0.5932693450847850  0.6979871282750807  0.3523979868156601   F   F   F
  0.4690068300988983  0.8614274690886390  0.4438283837725479   F   F   F
  0.1218393746731792  0.3229036360323434  0.6116672667309189   F   F   F
  0.0729713886710712  0.6649471025611575  0.6457807326336464   F   F   F
  0.2430017364380177  0.3855235730804765  0.6824802414323372   F   F   F
  0.2453757937218413  0.8136792574230185  0.6697370900480735   F   F   F
  0.5714734663400662  0.5320024113249673  0.7351959003140891   T   T   T
  0.5336291371852298  0.4652663507985793  0.7762232692761302   T   T   T
  0.3689417337474836  0.6483550972712351  0.4390000177989322   F   F   F
  0.3468156499340012  0.5040338677980998  0.4203881275781143   F   F   F
  0.8607096110809280  0.5661054726161936  0.6967017198022845   F   F   F
  0.3487813117695566  0.9578619002095508  0.5307031414088854   F   F   F
  0.0334573426939357  0.9325585763796411  0.5285321293071092   F   F   F
  0.6363554822520214  0.0788685454107210  0.4893766723794641   F   F   F
  0.0686461464337711  0.0522654213252736  0.3951107345583225   F   F   F
  0.4518995423849290  0.1295623246799735  0.4205972814427668   F   F   F
  0.8058841492391053  0.2136501795425687  0.4831666074103040   F   F   F
  0.9731021200101182  0.1815765227890793  0.5987815502160032   F   F   F
  0.2747652928370670  0.2991728708608434  0.4485122250900346   F   F   F
  0.5563541661493261  0.7750912910288292  0.4417510122690658   F   F   F
  0.3920201116385300  0.9734587415312603  0.6196702598319703   F   F   F
  0.1775172398119551  0.3499684491797339  0.4052731245300478   F   F   F
  0.8666830076800949  0.6840259318456106  0.6372085744363076   F   F   F
  0.8656960101805780  0.9671769319282575  0.4670384592975196   F   F   F
  0.3010471365425786  0.7609368347250012  0.4579252567998537   F   F   F
  0.4216109455749333  0.2612522168655929  0.3795963030273342   F   F   F
  0.8111847831399288  0.4652844073739004  0.5201241930755529   F   F   F
  0.9835754056999519  0.0727873957388567  0.5212313060989899   F   F   F
  0.5133945713810562  0.4601908441386371  0.6294038353282261   F   F   F
  0.0345364060712328  0.9199477615026765  0.4294052572495062   F   F   F
  0.9630365418976012  0.3031953077946739  0.3512576249606170   F   F   F
  0.0696266904018330  0.3361057653809567  0.3763717815531962   F   F   F
  0.2082956574839798  0.7286442940463758  0.3953601014000157   F   F   F
  0.0389012628664673  0.4191019154304030  0.4991087535393461   F   F   F
  0.2396057614120934  0.2858440758316618  0.5878945827925719   F   F   F
  0.3971149243742360  0.1949736235582051  0.6443879960328616   F   F   F
  0.4548474231395190  0.5615710436613313  0.5832591701089669   F   F   F
  0.9098027571616427  0.7491996871696216  0.5574732001162985   F   F   F
  0.8691272712828919  0.1080433422095268  0.4422783307318099   F   F   F
  0.5725767945286506  0.6673318527169130  0.3761317316733468   F   F   F
  0.1424265590487721  0.1591254986639967  0.3759722435750490   F   F   F
  0.3505538107905437  0.7655094248228309  0.6066358975288395   F   F   F
  0.9109960497481637  0.8450475712761403  0.4831796236075121   F   F   F
  0.0613380104439898  0.5368717056838861  0.4422534820284341   F   F   F
  0.7083390276613883  0.5551665516973827  0.4199576800001736   F   F   F
  0.0754872572295611  0.8168068047449992  0.4829941554854784   F   F   F
  0.7004647711503367  0.8275557148620294  0.4326352913293690   F   F   F
  0.7301506790710093  0.0489707342317871  0.5430024072131374   F   F   F
  0.9189272976828562  0.3022183100321527  0.6319476013431000   F   F   F
  0.7350575441122515  0.8531576410331922  0.6129626917710311   F   F   F
  0.6251219543397468  0.5273940019123060  0.4863787091564404   F   F   F
  0.5565732986914895  0.6297030402341477  0.4672494240254110   F   F   F
  0.4264234558785560  0.2471308596489692  0.5555019157671595   F   F   F
  0.9782900937866188  0.7282436334557403  0.4767956400891720   F   F   F
  0.6542218058675573  0.5940874232268243  0.6333780263451345   F   F   F
  0.3967664834283369  0.7469828420246927  0.5151587454180913   F   F   F
  0.6026900684925138  0.5176654516222357  0.3856709925442061   F   F   F
  0.7198070171125366  0.6311167930590074  0.5571070843675798   F   F   F
  0.1467830678878030  0.3639773291529949  0.6199662659336411   F   F   F
  0.0664536025429925  0.5485767239050006  0.5419595788706459   F   F   F
  0.8188990528840066  0.8847154318644002  0.5366774057053334   F   F   F
  0.8282155306144290  0.3553851425745194  0.4519033357708793   F   F   F
  0.5279596115213394  0.2978803485205717  0.5311460002389055   F   F   F
  0.7368529944049271  0.4991258105842888  0.5954224142069862   F   F   F
  0.5574339360525684  0.1724311050277691  0.3949085375269945   F   F   F
  0.8059640829434258  0.2564125703207623  0.3832928600033014   F   F   F
  0.2374462167159379  0.9532507503228373  0.5079195554207132   F   F   F
  0.6929210728083461  0.7763030841036240  0.5415335621799429   F   F   F
  0.9238786513009885  0.9497856517428787  0.5529504921693302   F   F   F
  0.5257372223071499  0.3177811194315368  0.3985559351687087   F   F   F
  0.4684441482054282  0.9903564825303945  0.5460936242556471   F   F   F
  0.8376731229694414  0.0948055159241505  0.5397636910104282   F   F   F
  0.5379032529954273  0.1164174891624583  0.4862370923690094   F   F   F
  0.3501934424681892  0.1866087322829628  0.4396363938456389   F   F   F
  0.0117603227697671  0.9624138997505156  0.3352437574830063   F   F   F
  0.4543798108936628  0.5967152069905453  0.6766009563505833   F   F   F
  0.6549652215052149  0.9253975041590294  0.3792282539811964   F   F   F
  0.0762933429000086  0.6860262572550013  0.4358810225764742   F   F   F
  0.4541073923137233  0.4044069989598924  0.5530939069303713   F   F   F
  0.7192194365794862  0.7004208511946786  0.3795829994963285   F   F   F
  0.4513285145383179  0.7050252414800298  0.5992300192240805   F   F   F
  0.7525510590585540  0.7093245752524027  0.4762954835743187   F   F   F
  0.7785287507941092  0.1211223840135531  0.6207046192124963   F   F   F
  0.9932746154998640  0.3080134732727942  0.4484029789284989   F   F   F
  0.5349702268166823  0.5089142052991278  0.5328775299708539   F   F   F
  0.8167775851685377  0.4990617343205841  0.4234422052650615   F   F   F
  0.2356822254788327  0.1449888612111181  0.6053395703970708   F   F   F
  0.2035333056693176  0.8307013159295948  0.4705336293601903   F   F   F
  0.2400429678054294  0.5586694501671587  0.5228387927404015   F   F   F
  0.0612746334820358  0.6255350778177586  0.6236691954825702   F   F   F
  0.0460740721579711  0.6023466920262663  0.3541786312221902   F   F   F
  0.8007302372203071  0.9788125305611359  0.6058899010589371   F   F   F
  0.5379909096643800  0.0276974916307395  0.4045027517534763   F   F   F
  0.6051254192491271  0.3122984938467397  0.6050707175396610   F   F   F
  0.8615461074870723  0.0040808493425857  0.3692063291070653   F   F   F
  0.0949113079349573  0.1490228352536036  0.4670823258906296   F   F   F
  0.1714497702519040  0.2040526293586993  0.5309103868344351   F   F   F
  0.6409886548370807  0.7044387200849300  0.4548155821771758   F   F   F
  0.4367877833594562  0.4097684807507775  0.3864132536704119   F   F   F
  0.5742373908111631  0.0585926545165520  0.5711425969739850   F   F   F
  0.1514377461550822  0.5934080233507046  0.3889583608347777   F   F   F
  0.2677397900298786  0.6023375312719352  0.3923062966030031   F   F   F
  0.4402584599838875  0.3221981821637669  0.4703244327181508   F   F   F
  0.2380096658428670  0.1585111292073265  0.4299011866524154   F   F   F
  0.0727723928543398  0.1503164455533152  0.5625856516169776   F   F   F
  0.8449127588124696  0.5441698721799924  0.5996990582327868   F   F   F
  0.6211794283797261  0.2799398764502143  0.4109054511829981   F   F   F
  0.6026669933268991  0.8915266656811696  0.4672234595428861   F   F   F
  0.0313853911711632  0.1952898289720011  0.3889918752683101   F   F   F
  0.6079652397862674  0.1952951083045988  0.5474801603528121   F   F   F
  0.1327997262830110  0.9383546444265392  0.4794870772378772   F   F   F
  0.0802566048490476  0.2803909969952940  0.5115840518240731   F   F   F
  0.3727115742297897  0.1045997333255499  0.5681701514739146   F   F   F
  0.0667518495304122  0.6969710733216701  0.5356685575638949   F   F   F
  0.6664883802395920  0.4153848774500162  0.4300115561107631   F   F   F
  0.7993939246919908  0.7296380951092374  0.5641496866409881   F   F   F
  0.7038385585664102  0.9572084331836876  0.4701845621740759   F   F   F
  0.5984989911455258  0.6353794499797090  0.5529524877189829   F   F   F
  0.7228402998194312  0.2936846539655704  0.4516681052539582   F   F   F
  0.9775496452856274  0.3141986081334736  0.5472154919552352   F   F   F
  0.1585108597017140  0.6300115824782964  0.5706374960276932   F   F   F
  0.6333338447636834  0.3267830791508146  0.5078007023299378   F   F   F
  0.8196111111428976  0.3962948213041386  0.6055540971732114   F   F   F
  0.9585781980424741  0.0272430442537654  0.4169530046787955   F   F   F
  0.2820733782704110  0.1950848672385916  0.5186616305915095   F   F   F
  0.2492575497062219  0.4430328890313291  0.4610556955705079   F   F   F
  0.2719811092143303  0.8498508525072168  0.5691564282889274   F   F   F
  0.2036681492717136  0.6855731693326916  0.4868887178860462   F   F   F
  0.1471234534025641  0.4760698765562736  0.4925449251270066   F   F   F
  0.2244734216901563  0.4226368974548578  0.5567972125144252   F   F   F
  0.9114169782388899  0.4527445980703959  0.4737188145108959   F   F   F
  0.8697881760712605  0.7045601104075629  0.4641535209108483   F   F   F
  0.7381202077648155  0.0928346184210156  0.4452296472671975   F   F   F
  0.2221834364137223  0.9297811896885051  0.4079468165165281   F   F   F
  0.2520401098782230  0.4024640507856390  0.6492191913319729   F   F   F
  0.6304685216466979  0.8832603093419280  0.5934172763729606   F   F   F
  0.4102232652989244  0.7890623918912638  0.4234373851432949   F   F   F
  0.9177713526838360  0.1960382935517870  0.5082451459005242   F   F   F
  0.1325470583719763  0.4435361137187215  0.3322726622007863   F   F   F
  0.1551476808383612  0.3035232550984901  0.3105604161752922   F   F   F
  0.3730051452223293  0.1309070431484400  0.3479534200993726   F   F   F
  0.0345745308878094  0.2919056557768585  0.6334435714420508   F   F   F
  0.5726892607312024  0.2568681912710389  0.3200996781806822   F   F   F
  0.2451643273683004  0.7689251206668999  0.6499557552049069   F   F   F
  0.2073742988503469  0.6484050495897407  0.3103690611938177   F   F   F
  0.2753744117323080  0.3921912989361900  0.3673758273212613   F   F   F
  0.3653508124399352  0.5975866320683707  0.3422207943191111   F   F   F
  0.2263808501748272  0.0561808239321806  0.3581188824802055   F   F   F
  0.2412033349838580  0.1960782275144553  0.3293429668079639   F   F   F
  0.5012729261245497  0.8923016217637851  0.4548416832162587   F   F   F
  0.5501938489092950  0.8276377467380982  0.5343284181047210   F   F   F
  0.5452846938956242  0.6458269938483596  0.6344360327138858   F   F   F
  0.4784471456640986  0.1219888261590896  0.5962280926741528   F   F   F
  0.2628648369592383  0.6942087787125857  0.5683145340666442   F   F   F
  0.4424669026935604  0.8475792823536992  0.5814756731429327   F   F   F
  0.7656136644530847  0.6168527109180673  0.6495040432639669   F   F   F
  0.8448016354581895  0.8317054407705555  0.6230115008171211   F   F   F
  0.6402770450827546  0.7396825205991959  0.6211889968490354   F   F   F
  0.0081514763389805  0.0334765009480691  0.6029882023657720   F   F   F
  0.2844792771720606  0.0021691325909075  0.5935532898822515   F   F   F
  0.5034583604767704  0.9717850358078621  0.6285444958700523   F   F   F
  0.4250826277768311  0.4392174602836576  0.7144453171586136   T   T   T
  0.0832252792112911  0.6064203006159019  0.4064130837160320   F   F   F
  0.4090367957629226  0.7661462012568308  0.5743769944978965   F   F   F
  0.8417638189206400  0.4414531150138714  0.4678389696388976   F   F   F
  0.0170894936360568  0.9904820387337452  0.3936113541928137   F   F   F
  0.0147002065988957  0.2841902735343993  0.3910814136036507   F   F   F
  0.0092520510122824  0.1151021360903144  0.5725243985334245   F   F   F
  0.6098257222297647  0.6577979533594203  0.6109939504786155   F   F   F
  0.2139657647224951  0.4758426667764653  0.5097467966129230   F   F   F
  0.9150621277607272  0.7555609372428762  0.4962545438487922   F   F   F
  0.5205785424525260  0.1104556259083296  0.4259865881079392   F   F   F
  0.4186440075498865  0.1693958388021173  0.5890243061030063   F   F   F
  0.0834525281222085  0.1391720768766334  0.4069808717903314   F   F   F
  0.7018979344879455  0.0448462543081121  0.4873230277072054   F   F   F
  0.6650593546056740  0.8980374632893202  0.4374764361266443   F   F   F
  0.6500987439622605  0.5040270568778311  0.4301508871204760   F   F   F
  0.1984606475206618  0.9124822312100775  0.4639906909803457   F   F   F
  0.2143310512179397  0.3665411240508121  0.6036264654317236   F   F   F
  0.6737321688725828  0.8137321247889275  0.5946671445974658   F   F   F
  0.2168146289714272  0.6415559137858367  0.5384780690715019   F   F   F
  0.3687891183512946  0.7351277331247985  0.4592092972079129   F   F   F
  0.7974907304208330  0.8886101970724027  0.5957043456087447   F   F   F
  0.8798227756374999  0.9122957689731805  0.5119920398996385   F   F   F
  0.5770073133027367  0.5753057907423269  0.5121864588788370   F   F   F
  0.5898842425655531  0.1154149679686043  0.5252079979073088   F   F   F
  0.8581223411646519  0.1521132321647087  0.4951759473310489   F   F   F
  0.8355418743809295  0.6036507269769800  0.6458455586255809   F   F   F
  0.1337385207486648  0.3603189034452470  0.3568722791356791   F   F   F
  0.7906552882913616  0.2799392454557648  0.4418726542293072   F   F   F
  0.3991760967689615  0.1774948437530099  0.3960031981861079   F   F   F
  0.8560552769205572  0.7501247145524630  0.5965287300945548   F   F   F
  0.2828198504801378  0.9345393025715154  0.5497453058415971   F   F   F
  0.0230747322536402  0.3304475144031116  0.5022455100715746   F   F   F
  0.5745593847912573  0.6954900807820579  0.4355643604055430   F   F   F
  0.2302409542041772  0.7526004963776103  0.4519695445397645   F   F   F
  0.5938653545062849  0.2836917079801893  0.5481083608044344   F   F   F
  0.9751906477640162  0.2723639942864011  0.6026220048255766   F   F   F
  0.8889063590224922  0.0254089987032842  0.4242001869335610   F   F   F
  0.1047147188560800  0.1954845971356391  0.5177474285189376   F   F   F
  0.0481456608521569  0.7330370932417907  0.4826301941714348   F   F   F
  0.2319511507885679  0.2057641833493520  0.5610768054775761   F   F   F
  0.5614078070497825  0.2577852695391769  0.3812261074005363   F   F   F
  0.4768045139222608  0.6287141433762073  0.6222101774405218   F   F   F
  0.2812885681173256  0.7701893279573468  0.5977977687942655   F   F   F
  0.2085008252580423  0.6433998443080498  0.3717945352858223   F   F   F
  0.7404647259050066  0.7107634412704371  0.5358672775690323   F   F   F
  0.9865929783074847  0.9906520400293530  0.5503647307552839   F   F   F
  0.7031045577904180  0.7368181529665634  0.4342603982179796   F   F   F
  0.7878739353782223  0.0594668980734454  0.5767875067843633   F   F   F
  0.4563138979678243  0.3284515948311224  0.4092878915485585   F   F   F
  0.4495527253294753  0.9363416345842310  0.5944479833725183   F   F   F
  0.5086325893891868  0.0409760681150289  0.5860293168102118   F   F   F
  0.2442471516429308  0.3704063236853941  0.4209471039025985   F   F   F
  0.6585253436744694  0.3300021106527140  0.4503479098948588   F   F   F
  0.4608560971065714  0.3179095226121973  0.5287030184620249   F   F   F
  0.3372993678081997  0.5899425415699397  0.3990830096962270   F   F   F
  0.8032501572227346  0.4763894931458879  0.5797552651931852   F   F   F
  0.0692097893475037  0.8988591555082337  0.4805055068825652   F   F   F
  0.2119075788177369  0.1444543211161857  0.3735965933534686   F   F   F
  0.0782328565913559  0.4939849948658406  0.4946876202126234   F   F   F
  0.5575701889191933  0.8523400984338849  0.4747302534090920   F   F   F
  0.7185139813187860  0.5846286937374501  0.6096128772717506   F   F   F
  0.2866421241915660  0.2101017383532309  0.4591107728955208   F   F   F
  0.0883102605075834  0.6255692931105372  0.5676185491186274   F   F   F
  0.3534113762842139  0.0191822940802240  0.5781758951439713   F   F   F
  0.4875150002840627  0.4803717484112440  0.5730737583511498   F   F   F
  0.4773058866599982  0.4957242636409590  0.6901288521446312   T   T   T
 
  0.00000000E+00  0.00000000E+00  0.00000000E+00
  0.00000000E+00  0.00000000E+00  0.00000000E+00
  0.00000000E+00  0.00000000E+00  0.00000000E+00
  0.00000000E+00  0.00000000E+00  0.00000000E+00
  0.00000000E+00  0.00000000E+00  0.00000000E+00
  0.00000000E+00  0.00000000E+00  0.00000000E+00
  0.00000000E+00  0.00000000E+00  0.00000000E+00
  0.00000000E+00  0.00000000E+00  0.00000000E+00
  0.00000000E+00  0.00000000E+00  0.00000000E+00
  0.00000000E+00  0.00000000E+00  0.00000000E+00
  0.00000000E+00  0.00000000E+00  0.00000000E+00
  0.00000000E+00  0.00000000E+00  0.00000000E+00
  0.00000000E+00  0.00000000E+00  0.00000000E+00
  0.00000000E+00  0.00000000E+00  0.00000000E+00
  0.00000000E+00  0.00000000E+00  0.00000000E+00
  0.00000000E+00  0.00000000E+00  0.00000000E+00
  0.00000000E+00  0.00000000E+00  0.00000000E+00
  0.00000000E+00  0.00000000E+00  0.00000000E+00
  0.00000000E+00  0.00000000E+00  0.00000000E+00
  0.00000000E+00  0.00000000E+00  0.00000000E+00
  0.00000000E+00  0.00000000E+00  0.00000000E+00
  0.00000000E+00  0.00000000E+00  0.00000000E+00
  0.00000000E+00  0.00000000E+00  0.00000000E+00
  0.00000000E+00  0.00000000E+00  0.00000000E+00
  0.00000000E+00  0.00000000E+00  0.00000000E+00
  0.00000000E+00  0.00000000E+00  0.00000000E+00
  0.00000000E+00  0.00000000E+00  0.00000000E+00
  0.00000000E+00  0.00000000E+00  0.00000000E+00
  0.00000000E+00  0.00000000E+00  0.00000000E+00
  0.00000000E+00  0.00000000E+00  0.00000000E+00
  0.00000000E+00  0.00000000E+00  0.00000000E+00
  0.00000000E+00  0.00000000E+00  0.00000000E+00
  0.00000000E+00  0.00000000E+00  0.00000000E+00
  0.00000000E+00  0.00000000E+00  0.00000000E+00
  0.00000000E+00  0.00000000E+00  0.00000000E+00
  0.00000000E+00  0.00000000E+00  0.00000000E+00
  0.00000000E+00  0.00000000E+00  0.00000000E+00
  0.00000000E+00  0.00000000E+00  0.00000000E+00
  0.00000000E+00  0.00000000E+00  0.00000000E+00
  0.00000000E+00  0.00000000E+00  0.00000000E+00
  0.00000000E+00  0.00000000E+00  0.00000000E+00
  0.00000000E+00  0.00000000E+00  0.00000000E+00
  0.00000000E+00  0.00000000E+00  0.00000000E+00
  0.00000000E+00  0.00000000E+00  0.00000000E+00
  0.00000000E+00  0.00000000E+00  0.00000000E+00
  0.00000000E+00  0.00000000E+00  0.00000000E+00
  0.00000000E+00  0.00000000E+00  0.00000000E+00
  0.00000000E+00  0.00000000E+00  0.00000000E+00
  0.00000000E+00  0.00000000E+00  0.00000000E+00
  0.00000000E+00  0.00000000E+00  0.00000000E+00
  0.00000000E+00  0.00000000E+00  0.00000000E+00
  0.00000000E+00  0.00000000E+00  0.00000000E+00
  0.00000000E+00  0.00000000E+00  0.00000000E+00
  0.00000000E+00  0.00000000E+00  0.00000000E+00
  0.00000000E+00  0.00000000E+00  0.00000000E+00
  0.00000000E+00  0.00000000E+00  0.00000000E+00
  0.00000000E+00  0.00000000E+00  0.00000000E+00
  0.00000000E+00  0.00000000E+00  0.00000000E+00
  0.00000000E+00  0.00000000E+00  0.00000000E+00
  0.00000000E+00  0.00000000E+00  0.00000000E+00
  0.00000000E+00  0.00000000E+00  0.00000000E+00
  0.00000000E+00  0.00000000E+00  0.00000000E+00
  0.00000000E+00  0.00000000E+00  0.00000000E+00
  0.00000000E+00  0.00000000E+00  0.00000000E+00
  0.00000000E+00  0.00000000E+00  0.00000000E+00
  0.00000000E+00  0.00000000E+00  0.00000000E+00
  0.00000000E+00  0.00000000E+00  0.00000000E+00
  0.00000000E+00  0.00000000E+00  0.00000000E+00
  0.00000000E+00  0.00000000E+00  0.00000000E+00
  0.00000000E+00  0.00000000E+00  0.00000000E+00
  0.00000000E+00  0.00000000E+00  0.00000000E+00
  0.00000000E+00  0.00000000E+00  0.00000000E+00
  0.00000000E+00  0.00000000E+00  0.00000000E+00
  0.00000000E+00  0.00000000E+00  0.00000000E+00
  0.00000000E+00  0.00000000E+00  0.00000000E+00
  0.00000000E+00  0.00000000E+00  0.00000000E+00
  0.00000000E+00  0.00000000E+00  0.00000000E+00
  0.00000000E+00  0.00000000E+00  0.00000000E+00
  0.00000000E+00  0.00000000E+00  0.00000000E+00
  0.00000000E+00  0.00000000E+00  0.00000000E+00
  0.00000000E+00  0.00000000E+00  0.00000000E+00
  0.00000000E+00  0.00000000E+00  0.00000000E+00
  0.00000000E+00  0.00000000E+00  0.00000000E+00
  0.00000000E+00  0.00000000E+00  0.00000000E+00
  0.00000000E+00  0.00000000E+00  0.00000000E+00
  0.00000000E+00  0.00000000E+00  0.00000000E+00
  0.00000000E+00  0.00000000E+00  0.00000000E+00
  0.00000000E+00  0.00000000E+00  0.00000000E+00
  0.00000000E+00  0.00000000E+00  0.00000000E+00
  0.00000000E+00  0.00000000E+00  0.00000000E+00
  0.00000000E+00  0.00000000E+00  0.00000000E+00
  0.00000000E+00  0.00000000E+00  0.00000000E+00
  0.00000000E+00  0.00000000E+00  0.00000000E+00
  0.00000000E+00  0.00000000E+00  0.00000000E+00
  0.00000000E+00  0.00000000E+00  0.00000000E+00
  0.00000000E+00  0.00000000E+00  0.00000000E+00
  0.00000000E+00  0.00000000E+00  0.00000000E+00
  0.00000000E+00  0.00000000E+00  0.00000000E+00
  0.00000000E+00  0.00000000E+00  0.00000000E+00
  0.00000000E+00  0.00000000E+00  0.00000000E+00
  0.00000000E+00  0.00000000E+00  0.00000000E+00
  0.00000000E+00  0.00000000E+00  0.00000000E+00
  0.00000000E+00  0.00000000E+00  0.00000000E+00
  0.00000000E+00  0.00000000E+00  0.00000000E+00
  0.00000000E+00  0.00000000E+00  0.00000000E+00
  0.00000000E+00  0.00000000E+00  0.00000000E+00
  0.00000000E+00  0.00000000E+00  0.00000000E+00
  0.00000000E+00  0.00000000E+00  0.00000000E+00
  0.00000000E+00  0.00000000E+00  0.00000000E+00
  0.00000000E+00  0.00000000E+00  0.00000000E+00
  0.00000000E+00  0.00000000E+00  0.00000000E+00
  0.00000000E+00  0.00000000E+00  0.00000000E+00
  0.00000000E+00  0.00000000E+00  0.00000000E+00
  0.00000000E+00  0.00000000E+00  0.00000000E+00
  0.00000000E+00  0.00000000E+00  0.00000000E+00
  0.00000000E+00  0.00000000E+00  0.00000000E+00
  0.00000000E+00  0.00000000E+00  0.00000000E+00
  0.00000000E+00  0.00000000E+00  0.00000000E+00
  0.00000000E+00  0.00000000E+00  0.00000000E+00
  0.00000000E+00  0.00000000E+00  0.00000000E+00
  0.00000000E+00  0.00000000E+00  0.00000000E+00
  0.00000000E+00  0.00000000E+00  0.00000000E+00
  0.00000000E+00  0.00000000E+00  0.00000000E+00
  0.00000000E+00  0.00000000E+00  0.00000000E+00
  0.00000000E+00  0.00000000E+00  0.00000000E+00
  0.00000000E+00  0.00000000E+00  0.00000000E+00
  0.00000000E+00  0.00000000E+00  0.00000000E+00
  0.00000000E+00  0.00000000E+00  0.00000000E+00
  0.00000000E+00  0.00000000E+00  0.00000000E+00
  0.00000000E+00  0.00000000E+00  0.00000000E+00
  0.00000000E+00  0.00000000E+00  0.00000000E+00
  0.00000000E+00  0.00000000E+00  0.00000000E+00
  0.00000000E+00  0.00000000E+00  0.00000000E+00
  0.00000000E+00  0.00000000E+00  0.00000000E+00
  0.00000000E+00  0.00000000E+00  0.00000000E+00
  0.00000000E+00  0.00000000E+00  0.00000000E+00
  0.00000000E+00  0.00000000E+00  0.00000000E+00
  0.00000000E+00  0.00000000E+00  0.00000000E+00
  0.00000000E+00  0.00000000E+00  0.00000000E+00
  0.00000000E+00  0.00000000E+00  0.00000000E+00
  0.00000000E+00  0.00000000E+00  0.00000000E+00
  0.00000000E+00  0.00000000E+00  0.00000000E+00
  0.00000000E+00  0.00000000E+00  0.00000000E+00
  0.00000000E+00  0.00000000E+00  0.00000000E+00
  0.00000000E+00  0.00000000E+00  0.00000000E+00
  0.00000000E+00  0.00000000E+00  0.00000000E+00
  0.00000000E+00  0.00000000E+00  0.00000000E+00
  0.00000000E+00  0.00000000E+00  0.00000000E+00
  0.00000000E+00  0.00000000E+00  0.00000000E+00
  0.00000000E+00  0.00000000E+00  0.00000000E+00
  0.00000000E+00  0.00000000E+00  0.00000000E+00
  0.00000000E+00  0.00000000E+00  0.00000000E+00
  0.00000000E+00  0.00000000E+00  0.00000000E+00
  0.00000000E+00  0.00000000E+00  0.00000000E+00
  0.00000000E+00  0.00000000E+00  0.00000000E+00
  0.00000000E+00  0.00000000E+00  0.00000000E+00
  0.00000000E+00  0.00000000E+00  0.00000000E+00
  0.00000000E+00  0.00000000E+00  0.00000000E+00
  0.00000000E+00  0.00000000E+00  0.00000000E+00
  0.00000000E+00  0.00000000E+00  0.00000000E+00
  0.00000000E+00  0.00000000E+00  0.00000000E+00
  0.00000000E+00  0.00000000E+00  0.00000000E+00
  0.00000000E+00  0.00000000E+00  0.00000000E+00
  0.00000000E+00  0.00000000E+00  0.00000000E+00
  0.00000000E+00  0.00000000E+00  0.00000000E+00
  0.00000000E+00  0.00000000E+00  0.00000000E+00
  0.00000000E+00  0.00000000E+00  0.00000000E+00
  0.00000000E+00  0.00000000E+00  0.00000000E+00
  0.00000000E+00  0.00000000E+00  0.00000000E+00
  0.00000000E+00  0.00000000E+00  0.00000000E+00
  0.00000000E+00  0.00000000E+00  0.00000000E+00
  0.00000000E+00  0.00000000E+00  0.00000000E+00
  0.00000000E+00  0.00000000E+00  0.00000000E+00
  0.00000000E+00  0.00000000E+00  0.00000000E+00
  0.00000000E+00  0.00000000E+00  0.00000000E+00
  0.00000000E+00  0.00000000E+00  0.00000000E+00
  0.00000000E+00  0.00000000E+00  0.00000000E+00
  0.00000000E+00  0.00000000E+00  0.00000000E+00
  0.00000000E+00  0.00000000E+00  0.00000000E+00
  0.00000000E+00  0.00000000E+00  0.00000000E+00
  0.00000000E+00  0.00000000E+00  0.00000000E+00
  0.00000000E+00  0.00000000E+00  0.00000000E+00
  0.00000000E+00  0.00000000E+00  0.00000000E+00
  0.00000000E+00  0.00000000E+00  0.00000000E+00
  0.00000000E+00  0.00000000E+00  0.00000000E+00
  0.00000000E+00  0.00000000E+00  0.00000000E+00
  0.00000000E+00  0.00000000E+00  0.00000000E+00
  0.00000000E+00  0.00000000E+00  0.00000000E+00
  0.00000000E+00  0.00000000E+00  0.00000000E+00
  0.00000000E+00  0.00000000E+00  0.00000000E+00
  0.00000000E+00  0.00000000E+00  0.00000000E+00
  0.00000000E+00  0.00000000E+00  0.00000000E+00
  0.00000000E+00  0.00000000E+00  0.00000000E+00
  0.00000000E+00  0.00000000E+00  0.00000000E+00
  0.00000000E+00  0.00000000E+00  0.00000000E+00
  0.00000000E+00  0.00000000E+00  0.00000000E+00
  0.00000000E+00  0.00000000E+00  0.00000000E+00
  0.00000000E+00  0.00000000E+00  0.00000000E+00
  0.00000000E+00  0.00000000E+00  0.00000000E+00
  0.00000000E+00  0.00000000E+00  0.00000000E+00
  0.00000000E+00  0.00000000E+00  0.00000000E+00
  0.00000000E+00  0.00000000E+00  0.00000000E+00
  0.00000000E+00  0.00000000E+00  0.00000000E+00
  0.00000000E+00  0.00000000E+00  0.00000000E+00
  0.00000000E+00  0.00000000E+00  0.00000000E+00
  0.00000000E+00  0.00000000E+00  0.00000000E+00
  0.00000000E+00  0.00000000E+00  0.00000000E+00