 C  H  O Si  W                          
   1.0000000000000000     
    23.4112945954000011    0.0000000000000000    0.0000000000000000
     0.0000000000000000   18.1212369513999967    0.0000000000000000
     0.0000000000000000    0.0000000000000000   26.8833665072999999
   C    H    O    Si   W 
     4    52   154    65     1
Selective dynamics
Direct
  0.5505176955192180  0.5292778805471564  0.7277808021475380   T   T   T
  0.5139146541643139  0.5788774518619377  0.7571950988363240   T   T   T
  0.5668880798330247  0.4523841003323442  0.7450306145930603   T   T   T
  0.5361556884707503  0.6551842590592408  0.7713077611277676   T   T   T
  0.7617397666806003  0.1585635069437883  0.6510729630561828   T   T   T
  0.9264276758775409  0.3338528337127542  0.3563349293400009   F   F   F
  0.7933396966928186  0.2624627681135010  0.3734565163880745   F   F   F
  0.9745391127316694  0.9987924714271159  0.3253027906056829   F   F   F
  0.6257326647787878  0.0186567208635822  0.3752311999972449   F   F   F
  0.8205383986272707  0.0501905344676175  0.3689926296547128   F   F   F
  0.7499930738495308  0.1963626267206990  0.4580381926778543   F   F   F
  0.9155957575758196  0.3046503295772515  0.5094034221380390   T   T   T
  0.5834928632816769  0.3594474171037163  0.3059271726651787   F   F   F
  0.8915826008767264  0.3901892295650842  0.6159482771672729   T   T   T
  0.5841321469524250  0.4136052176134120  0.6145305069209267   T   T   T
  0.5934381923887352  0.9257285049855883  0.5781207393862364   T   T   T
  0.0337937654023103  0.3941659736279630  0.6514987186678338   T   T   T
  0.9352705076763712  0.4746980966241665  0.4541014552468710   F   F   F
  0.7461383787735159  0.5854958633044873  0.4224881911837883   F   F   F
  0.7978726567043307  0.4380812943463742  0.6349702592598893   T   T   T
  0.5911020174091490  0.6238666975949343  0.3780347436188976   F   F   F
  0.7184337867802384  0.7011166566873683  0.3834605945055571   F   F   F
  0.8411529142292764  0.5976104669426832  0.4195961671555111   F   F   F
  0.0047645486475076  0.6589820201033589  0.3577783004107076   F   F   F
  0.8283586993267491  0.7675405442855592  0.4679422553080954   F   F   F
  0.8781832251390127  0.6542842270482652  0.7206022610831877   T   T   T
  0.5199903139612303  0.0407486324352746  0.4217030704774842   F   F   F
  0.2230945721612159  0.0353387060675061  0.3932050219465495   F   F   F
  0.2163736907482345  0.2930353288766483  0.3192303272980936   F   F   F
  0.1575010503616241  0.3849901008808416  0.2789829167401123   F   F   F
  0.3415468765692253  0.2107695764228765  0.3307727584112428   F   F   F
  0.2227158616647102  0.1009427968968666  0.3227384335196248   F   F   F
  0.5118712282683885  0.8793022026226867  0.5469320177270344   T   T   T
  0.3818836042758670  0.2991515089293286  0.6473211270968988   T   T   T
  0.2447324999137552  0.1481944445416297  0.5978749679359209   T   T   T
  0.3153809713091036  0.5423203354474069  0.4424346656312608   F   F   F
  0.4089561837294582  0.4939187295607681  0.4056905975982730   F   F   F
  0.3984995032241372  0.8482974785238113  0.3887867966224334   F   F   F
  0.2442023571188656  0.7106139496515027  0.2943268807443218   F   F   F
  0.3117413815567005  0.4736595844105480  0.3692576443915385   F   F   F
  0.4054742948844066  0.6394635243379412  0.3388198885480591   F   F   F
  0.1393576205880507  0.5431575174532881  0.3519294596467617   F   F   F
  0.5932693451318087  0.7531709992981845  0.3523979868156601   F   F   F
  0.4690068301459220  0.9166113401117428  0.4438283837725479   F   F   F
  0.1216091062397215  0.3793174031921679  0.6117713199097214   T   T   T
  0.0731870706454906  0.7200464918365719  0.6458817505429599   T   T   T
  0.2447626862356915  0.4393287799828219  0.6821971783092285   T   T   T
  0.2474036559621417  0.8716673381661855  0.6694742747179248   T   T   T
  0.5852669225542357  0.5584793393210387  0.7081151513799374   T   T   T
  0.4885618027946133  0.5524970667161153  0.7865897708818327   T   T   T
  0.6028141210422242  0.4566879667563048  0.7714583633050993   T   T   T
  0.5307084729534688  0.4262320827340073  0.7642554593348561   T   T   T
  0.5801920551747544  0.4169733158383922  0.7139217331496236   T   T   T
  0.5673779967699039  0.6471729715654269  0.8016200744854780   T   T   T
  0.5585100237274562  0.6819270612097714  0.7401688293465485   T   T   T
  0.5026007720271223  0.6927669184266122  0.7845553775143643   T   T   T
  0.3689417337945073  0.7035389682943389  0.4390000177989322   F   F   F
  0.3468156499810249  0.5592177388212036  0.4203881275781143   F   F   F
  0.8606009807896400  0.6215336002768659  0.6965896020099668   T   T   T
  0.3492425799950000  0.0118446509825209  0.5305657899863564   T   T   T
  0.0333863599249547  0.9872050884922322  0.5287305549133878   T   T   T
  0.6363554822990451  0.1340524164338248  0.4893766723794641   F   F   F
  0.0686461464807948  0.1074492923483774  0.3951107345583225   F   F   F
  0.4518995424319527  0.1847461957030774  0.4205972814427668   F   F   F
  0.8058841492861291  0.2688340505656726  0.4831666074103040   F   F   F
  0.9736697853338160  0.2370228584528587  0.5985537815681788   T   T   T
  0.2747652928840907  0.3543567418839473  0.4485122250900346   F   F   F
  0.5563541661963498  0.8302751620519331  0.4417510122690658   F   F   F
  0.3919000491952376  0.0253225456589673  0.6199926470372327   T   T   T
  0.1775172398589788  0.4051523202028378  0.4052731245300478   F   F   F
  0.8659680944191898  0.7393319404209214  0.6373439493904216   T   T   T
  0.8656960102276017  0.0223608029513613  0.4670384592975196   F   F   F
  0.3010471365896024  0.8161207057481050  0.4579252567998537   F   F   F
  0.4216109456219570  0.3164360878886967  0.3795963030273342   F   F   F
  0.8107281863524435  0.5205239658798421  0.5199691477093648   T   T   T
  0.9831896931147892  0.1269510015032772  0.5211484601670484   T   T   T
  0.5215498827262264  0.5079159696098694  0.6281963921489752   T   T   T
  0.0345364061182565  0.9751316325257804  0.4294052572495062   F   F   F
  0.9630365419446250  0.3583791788177777  0.3512576249606170   F   F   F
  0.0696266904488567  0.3912896364040606  0.3763717815531962   F   F   F
  0.2082956575310035  0.7838281650694796  0.3953601014000157   F   F   F
  0.0389012629134911  0.4742857864535068  0.4991087535393461   F   F   F
  0.2384372087506678  0.3413060690933661  0.5879956621040826   T   T   T
  0.3968322442936184  0.2495063068214367  0.6441433418396975   T   T   T
  0.4570374519853047  0.6085436193269240  0.5932699651911330   T   T   T
  0.9094458803212407  0.8037639197718298  0.5574562120012896   T   T   T
  0.8691272713299156  0.1632272132326307  0.4422783307318099   F   F   F
  0.5725767945756743  0.7225157237400168  0.3761317316733468   F   F   F
  0.1424265590957958  0.2143093696871006  0.3759722435750490   F   F   F
  0.3511560573575880  0.8197863096019965  0.6069528685369576   T   T   T
  0.9109960497951874  0.9002314422992441  0.4831796236075121   F   F   F
  0.0613380104910135  0.5920555767069899  0.4422534820284341   F   F   F
  0.7083390277084121  0.6103504227204866  0.4199576800001736   F   F   F
  0.0754872572765848  0.8719906757681031  0.4829941554854784   F   F   F
  0.7004647711973604  0.8827395858851332  0.4326352913293690   F   F   F
  0.7304934842491262  0.1034418277245292  0.5429466584189866   T   T   T
  0.9189691308293789  0.3573220437323691  0.6319610392735372   T   T   T
  0.7352207608316310  0.9075871748686399  0.6129360878251147   T   T   T
  0.6251219543867705  0.5825778729354099  0.4863787091564404   F   F   F
  0.5565732987385132  0.6848869112572515  0.4672494240254110   F   F   F
  0.4261230187029919  0.2999992510314143  0.5548780465884411   T   T   T
  0.9782900938336425  0.7834275044788441  0.4767956400891720   F   F   F
  0.6537411411394769  0.6489477236978732  0.6338265872044152   T   T   T
  0.3965592181848387  0.8025648758424685  0.5150689618614971   T   T   T
  0.6026900685395375  0.5728493226453395  0.3856709925442061   F   F   F
  0.7188235007301729  0.6865186990917479  0.5572463878076104   T   T   T
  0.1462338794480144  0.4210623134536015  0.6192478735957662   T   T   T
  0.0657512873655313  0.6030841717051023  0.5422040207677378   T   T   T
  0.8184987416926931  0.9395366661288087  0.5363872987332560   T   T   T
  0.8282155306614527  0.4105690135976232  0.4519033357708793   F   F   F
  0.5280441515751657  0.3488719245899432  0.5299199443396501   T   T   T
  0.7362678751534087  0.5542901502417341  0.5950420929447233   T   T   T
  0.5574339360995921  0.2276149760508730  0.3949085375269945   F   F   F
  0.8059640829904495  0.3115964413438661  0.3832928600033014   F   F   F
  0.2374462167629616  0.0084346213459412  0.5079195554207132   F   F   F
  0.6925026382805179  0.8317051808832824  0.5412633514682906   T   T   T
  0.9235435873975543  0.0042720606187351  0.5531258633637105   T   T   T
  0.5257372223541736  0.3729649904546406  0.3985559351687087   F   F   F
  0.4680067522984406  0.0439647226617444  0.5465842016162269   T   T   T
  0.8379953922273864  0.1498013310652991  0.5397221494474376   T   T   T
  0.5379032530424510  0.1716013601855622  0.4862370923690094   F   F   F
  0.3501934425152129  0.2417926033060667  0.4396363938456389   F   F   F
  0.0117603228167908  0.0175977707736195  0.3352437574830063   F   F   F
  0.4555617796124486  0.6598555516791753  0.6808598386833334   T   T   T
  0.6549652215522386  0.9805813751821333  0.3792282539811964   F   F   F
  0.0762933429470323  0.7412101282781052  0.4358810225764742   F   F   F
  0.4557547666451183  0.4565674123289197  0.5536933011245654   T   T   T
  0.7192194366265099  0.7556047222177824  0.3795829994963285   F   F   F
  0.4513958465347008  0.7565831840315332  0.5965633192613320   T   T   T
  0.7525510591055777  0.7645084462755065  0.4762954835743187   F   F   F
  0.7796699455453557  0.1757332953748724  0.6207097000547142   T   T   T
  0.9932746155468877  0.3631973442958980  0.4484029789284989   F   F   F
  0.5312407017345708  0.5664748404213727  0.5307369005073393   T   T   T
  0.8167775852155614  0.5542456053436879  0.4234422052650615   F   F   F
  0.2366859460767165  0.2000434810954703  0.6048737798844485   T   T   T
  0.2035333057163413  0.8858851869526987  0.4705336293601903   F   F   F
  0.2402221248286551  0.6141260908411856  0.5224278320608797   T   T   T
  0.0610371288249797  0.6806119056686540  0.6239662396827401   T   T   T
  0.0460740722049948  0.6575305630493702  0.3541786312221902   F   F   F
  0.8011032924831134  0.0334927144321706  0.6057442890131221   T   T   T
  0.5379909097114037  0.0828813626538434  0.4045027517534763   F   F   F
  0.6040749533604557  0.3687348356391155  0.6045317353480969   T   T   T
  0.8615461075340960  0.0592647203656895  0.3692063291070653   F   F   F
  0.0949113079819810  0.2042067062767075  0.4670823258906296   F   F   F
  0.1715361978949259  0.2585236101094411  0.5307020002829852   T   T   T
  0.6409886548841044  0.7596225911080339  0.4548155821771758   F   F   F
  0.4367877834064799  0.4649523517738814  0.3864132536704119   F   F   F
  0.5740613673508037  0.1125262831690498  0.5707191268501131   T   T   T
  0.1514377462021059  0.6485918943738085  0.3889583608347777   F   F   F
  0.2677397900769023  0.6575214022950391  0.3923062966030031   F   F   F
  0.4402584600309112  0.3773820531868708  0.4703244327181508   F   F   F
  0.2380096658898907  0.2136950002304303  0.4299011866524154   F   F   F
  0.0727950394523787  0.2039964530958370  0.5621191916334632   T   T   T
  0.8442231628077909  0.5998849646523595  0.5994662501247073   T   T   T
  0.6211794284267498  0.3351237474733182  0.4109054511829981   F   F   F
  0.6026669933739228  0.9467105367042734  0.4672234595428861   F   F   F
  0.0313853912181870  0.2504736999951049  0.3889918752683101   F   F   F
  0.6091441256247154  0.2497159724694387  0.5478354133666452   T   T   T
  0.1327997263300347  0.9935385154496430  0.4794870772378772   F   F   F
  0.0798171948255134  0.3350819492349333  0.5122886530983045   T   T   T
  0.3725288247141815  0.1578169667261412  0.5690812585535289   T   T   T
  0.0659662607660489  0.7513846410581958  0.5356496585369466   T   T   T
  0.6664883802866157  0.4705687484731200  0.4300115561107631   F   F   F
  0.7987945071373979  0.7842785717397325  0.5645170181975077   T   T   T
  0.7038385586134339  0.0123923042067915  0.4701845621740759   F   F   F
  0.5974631171028332  0.6889767770620308  0.5537962388670049   T   T   T
  0.7228402998664549  0.3488685249886743  0.4516681052539582   F   F   F
  0.9770602792221832  0.3697954039881344  0.5470463851441011   T   T   T
  0.1578620359854691  0.6845662142174910  0.5701516897915984   T   T   T
  0.6333338448107071  0.3819669501739185  0.5078007023299378   F   F   F
  0.8195302789203193  0.4521821395968391  0.6057082293318280   T   T   T
  0.9585781980894978  0.0824269152768693  0.4169530046787955   F   F   F
  0.2822562855958593  0.2509741530803927  0.5186396765339787   T   T   T
  0.2492575497532457  0.4982167600544329  0.4610556955705079   F   F   F
  0.2728777942035500  0.9037150076082362  0.5678566968556746   T   T   T
  0.2036681493187373  0.7407570403557955  0.4868887178860462   F   F   F
  0.1471234534495878  0.5312537475793775  0.4925449251270066   F   F   F
  0.2249561586914260  0.4784909037699600  0.5568222006543818   T   T   T
  0.9114169782859136  0.5079284690934998  0.4737188145108959   F   F   F
  0.8697881761182842  0.7597439814306668  0.4641535209108483   F   F   F
  0.7381202078118392  0.1480184894441194  0.4452296472671975   F   F   F
  0.2221834364607460  0.9849650607116089  0.4079468165165281   F   F   F
  0.2520423434030389  0.4581512708400167  0.6490724943135778   T   T   T
  0.6302526502854656  0.9381841493285560  0.5938560392661608   T   T   T
  0.4102232653459481  0.8442462629143677  0.4234373851432949   F   F   F
  0.9177713527308597  0.2512221645748909  0.5082451459005242   F   F   F
  0.1325470584190001  0.4987199847418253  0.3322726622007863   F   F   F
  0.1551476808853849  0.3587071261215939  0.3105604161752922   F   F   F
  0.3730051452693530  0.1860909141715439  0.3479534200993726   F   F   F
  0.0345728959578293  0.3479759685690740  0.6332100444575062   T   T   T
  0.5726892607782261  0.3120520622941427  0.3200996781806822   F   F   F
  0.2459647581112057  0.8265795821209809  0.6500887993205859   T   T   T
  0.2073742988973706  0.7035889206128445  0.3103690611938177   F   F   F
  0.2753744117793318  0.4473751699592938  0.3673758273212613   F   F   F
  0.3653508124869589  0.6527705030914746  0.3422207943191111   F   F   F
  0.2263808502218509  0.1113646949552844  0.3581188824802055   F   F   F
  0.2412033350308818  0.2512620985375591  0.3293429668079639   F   F   F
  0.5012729261715734  0.9474854927868890  0.4548416832162587   F   F   F
  0.5506545797401181  0.8821461340913251  0.5342505811260521   T   T   T
  0.5459404246964419  0.7044451992297746  0.6359843651147058   T   T   T
  0.4781697013906238  0.1754438636697762  0.5965154557016726   T   T   T
  0.2622866779723051  0.7489346555471479  0.5691714306618985   T   T   T
  0.4437301940091624  0.9005090975766109  0.5825447036350605   T   T   T
  0.7649924075862164  0.6717540284343315  0.6495860767701420   T   T   T
  0.8449493116450115  0.8868291115809843  0.6227440973118805   T   T   T
  0.6407926254862193  0.7947196959311762  0.6211138300415707   T   T   T
  0.0077010799153778  0.0883314280164519  0.6030762223837860   T   T   T
  0.2848042692514458  0.0555123861521134  0.5937337598063920   T   T   T
  0.5039860738228260  0.0255862935128486  0.6286801433097771   T   T   T
  0.4258788481148658  0.4909477017516571  0.7069800730298309   T   T   T
  0.0832252792583148  0.6616041716390058  0.4064130837160320   F   F   F
  0.4093439713610960  0.8200905256898239  0.5742854940191924   T   T   T
  0.8417638189676637  0.4966369860369753  0.4678389696388976   F   F   F
  0.0170894936830805  0.0456659097568490  0.3936113541928137   F   F   F
  0.0147002066459194  0.3393741445575031  0.3910814136036507   F   F   F
  0.0090424083112868  0.1697609070883208  0.5722813617102723   T   T   T
  0.6099350185813186  0.7131732323547944  0.6113374331062974   T   T   T
  0.2140301887298645  0.5312727550029341  0.5096479965452019   T   T   T
  0.9150621278077509  0.8107448082659801  0.4962545438487922   F   F   F
  0.5205785424995497  0.1656394969314334  0.4259865881079392   F   F   F
  0.4184863268960042  0.2230425227515116  0.5890410280501591   T   T   T
  0.0834525281692322  0.1943559478997372  0.4069808717903314   F   F   F
  0.7018979345349692  0.1000301253312159  0.4873230277072054   F   F   F
  0.6650593546526977  0.9532213343124241  0.4374764361266443   F   F   F
  0.6500987440092842  0.5592109279009350  0.4301508871204760   F   F   F
  0.1984606475676856  0.9676661022331814  0.4639906909803457   F   F   F
  0.2140515725217544  0.4225244778490579  0.6035578826469685   T   T   T
  0.6737388716454941  0.8688549811942563  0.5946130218205598   T   T   T
  0.2165403463466929  0.6966633427321113  0.5385383855143681   T   T   T
  0.3687891183983183  0.7903116041479024  0.4592092972079129   F   F   F
  0.7974806591531223  0.9434175572546947  0.5955297443790076   T   T   T
  0.8795410582308945  0.9672634685717574  0.5119424685840901   T   T   T
  0.5765112815126799  0.6302661673898449  0.5119608515577031   T   T   T
  0.5898785351636970  0.1703207584059258  0.5252765733652535   T   T   T
  0.8581223412116756  0.2072971031878126  0.4951759473310489   F   F   F
  0.8349694657196458  0.6588955102553962  0.6458404928052069   T   T   T
  0.1337385207956885  0.4155027744683508  0.3568722791356791   F   F   F
  0.7906552883383853  0.3351231164788686  0.4418726542293072   F   F   F
  0.3991760968159852  0.2326787147761138  0.3960031981861079   F   F   F
  0.8557017102923340  0.8050668789087185  0.5964520882963430   T   T   T
  0.2831566620889091  0.9888098215699950  0.5493051869971499   T   T   T
  0.0230747323006639  0.3856313854262154  0.5022455100715746   F   F   F
  0.5745593848382811  0.7506739518051617  0.4355643604055430   F   F   F
  0.2302409542512009  0.8077843674007141  0.4519695445397645   F   F   F
  0.5939991074123678  0.3380522714371433  0.5479742130664915   T   T   T
  0.9752602973977963  0.3278256866737939  0.6024357133618755   T   T   T
  0.8889063590695159  0.0805928697263880  0.4242001869335610   F   F   F
  0.1047005319681073  0.2502432855031561  0.5178567322864707   T   T   T
  0.0481456608991806  0.7882209642648945  0.4826301941714348   F   F   F
  0.2320065023574433  0.2611891443269989  0.5609774043099556   T   T   T
  0.5614078070968063  0.3129691405622808  0.3812261074005363   F   F   F
  0.4774749913786409  0.6855164780610482  0.6254928076017217   T   T   T
  0.2818162532790428  0.8251584662604323  0.5978365472088523   T   T   T
  0.2085008253050660  0.6985837153311536  0.3717945352858223   F   F   F
  0.7399877023356609  0.7659336780974938  0.5358415694031688   T   T   T
  0.9862935444273575  0.0451269389822829  0.5505425910458657   T   T   T
  0.7031045578374417  0.7920020239896672  0.4342603982179796   F   F   F
  0.7882765401010406  0.1141536083677994  0.5766506520144871   T   T   T
  0.4563138980148480  0.3836354658542263  0.4092878915485585   F   F   F
  0.4500279474204045  0.9895767423219229  0.5950071627124892   T   T   T
  0.5086259842683850  0.0947565063353686  0.5860798765655212   T   T   T
  0.2442471516899545  0.4255901947084979  0.4209471039025985   F   F   F
  0.6585253437214931  0.3851859816758179  0.4503479098948588   F   F   F
  0.4612234104673431  0.3708212414923076  0.5285104454914133   T   T   T
  0.3372993678552234  0.6451264125930436  0.3990830096962270   F   F   F
  0.8027775419310568  0.5318490398261038  0.5795783587158656   T   T   T
  0.0692097893945274  0.9540430265313375  0.4805055068825652   F   F   F
  0.2119075788647606  0.1996381921392896  0.3735965933534686   F   F   F
  0.0782328566383796  0.5491688658889444  0.4946876202126234   F   F   F
  0.5575701889662170  0.9075239694569888  0.4747302534090920   F   F   F
  0.7179103559385122  0.6396416955420290  0.6096433469696735   T   T   T
  0.2866421242385897  0.2652856093763347  0.4591107728955208   F   F   F
  0.0876581258925902  0.6802006853691027  0.5677121504707957   T   T   T
  0.3538006796444280  0.0721900974465656  0.5786111935604994   T   T   T
  0.4914080060297444  0.5305949575320847  0.5745088891275272   T   T   T
  0.4758791811967275  0.5529648473149364  0.6864029850863814   T   T   T

  0.00000000E+00  0.00000000E+00  0.00000000E+00
  0.00000000E+00  0.00000000E+00  0.00000000E+00
  0.00000000E+00  0.00000000E+00  0.00000000E+00
  0.00000000E+00  0.00000000E+00  0.00000000E+00
  0.00000000E+00  0.00000000E+00  0.00000000E+00
  0.00000000E+00  0.00000000E+00  0.00000000E+00
  0.00000000E+00  0.00000000E+00  0.00000000E+00
  0.00000000E+00  0.00000000E+00  0.00000000E+00
  0.00000000E+00  0.00000000E+00  0.00000000E+00
  0.00000000E+00  0.00000000E+00  0.00000000E+00
  0.00000000E+00  0.00000000E+00  0.00000000E+00
  0.00000000E+00  0.00000000E+00  0.00000000E+00
  0.00000000E+00  0.00000000E+00  0.00000000E+00
  0.00000000E+00  0.00000000E+00  0.00000000E+00
  0.00000000E+00  0.00000000E+00  0.00000000E+00
  0.00000000E+00  0.00000000E+00  0.00000000E+00
  0.00000000E+00  0.00000000E+00  0.00000000E+00
  0.00000000E+00  0.00000000E+00  0.00000000E+00
  0.00000000E+00  0.00000000E+00  0.00000000E+00
  0.00000000E+00  0.00000000E+00  0.00000000E+00
  0.00000000E+00  0.00000000E+00  0.00000000E+00
  0.00000000E+00  0.00000000E+00  0.00000000E+00
  0.00000000E+00  0.00000000E+00  0.00000000E+00
  0.00000000E+00  0.00000000E+00  0.00000000E+00
  0.00000000E+00  0.00000000E+00  0.00000000E+00
  0.00000000E+00  0.00000000E+00  0.00000000E+00
  0.00000000E+00  0.00000000E+00  0.00000000E+00
  0.00000000E+00  0.00000000E+00  0.00000000E+00
  0.00000000E+00  0.00000000E+00  0.00000000E+00
  0.00000000E+00  0.00000000E+00  0.00000000E+00
  0.00000000E+00  0.00000000E+00  0.00000000E+00
  0.00000000E+00  0.00000000E+00  0.00000000E+00
  0.00000000E+00  0.00000000E+00  0.00000000E+00
  0.00000000E+00  0.00000000E+00  0.00000000E+00
  0.00000000E+00  0.00000000E+00  0.00000000E+00
  0.00000000E+00  0.00000000E+00  0.00000000E+00
  0.00000000E+00  0.00000000E+00  0.00000000E+00
  0.00000000E+00  0.00000000E+00  0.00000000E+00
  0.00000000E+00  0.00000000E+00  0.00000000E+00
  0.00000000E+00  0.00000000E+00  0.00000000E+00
  0.00000000E+00  0.00000000E+00  0.00000000E+00
  0.00000000E+00  0.00000000E+00  0.00000000E+00
  0.00000000E+00  0.00000000E+00  0.00000000E+00
  0.00000000E+00  0.00000000E+00  0.00000000E+00
  0.00000000E+00  0.00000000E+00  0.00000000E+00
  0.00000000E+00  0.00000000E+00  0.00000000E+00
  0.00000000E+00  0.00000000E+00  0.00000000E+00
  0.00000000E+00  0.00000000E+00  0.00000000E+00
  0.00000000E+00  0.00000000E+00  0.00000000E+00
  0.00000000E+00  0.00000000E+00  0.00000000E+00
  0.00000000E+00  0.00000000E+00  0.00000000E+00
  0.00000000E+00  0.00000000E+00  0.00000000E+00
  0.00000000E+00  0.00000000E+00  0.00000000E+00
  0.00000000E+00  0.00000000E+00  0.00000000E+00
  0.00000000E+00  0.00000000E+00  0.00000000E+00
  0.00000000E+00  0.00000000E+00  0.00000000E+00
  0.00000000E+00  0.00000000E+00  0.00000000E+00
  0.00000000E+00  0.00000000E+00  0.00000000E+00
  0.00000000E+00  0.00000000E+00  0.00000000E+00
  0.00000000E+00  0.00000000E+00  0.00000000E+00
  0.00000000E+00  0.00000000E+00  0.00000000E+00
  0.00000000E+00  0.00000000E+00  0.00000000E+00
  0.00000000E+00  0.00000000E+00  0.00000000E+00
  0.00000000E+00  0.00000000E+00  0.00000000E+00
  0.00000000E+00  0.00000000E+00  0.00000000E+00
  0.00000000E+00  0.00000000E+00  0.00000000E+00
  0.00000000E+00  0.00000000E+00  0.00000000E+00
  0.00000000E+00  0.00000000E+00  0.00000000E+00
  0.00000000E+00  0.00000000E+00  0.00000000E+00
  0.00000000E+00  0.00000000E+00  0.00000000E+00
  0.00000000E+00  0.00000000E+00  0.00000000E+00
  0.00000000E+00  0.00000000E+00  0.00000000E+00
  0.00000000E+00  0.00000000E+00  0.00000000E+00
  0.00000000E+00  0.00000000E+00  0.00000000E+00
  0.00000000E+00  0.00000000E+00  0.00000000E+00
  0.00000000E+00  0.00000000E+00  0.00000000E+00
  0.00000000E+00  0.00000000E+00  0.00000000E+00
  0.00000000E+00  0.00000000E+00  0.00000000E+00
  0.00000000E+00  0.00000000E+00  0.00000000E+00
  0.00000000E+00  0.00000000E+00  0.00000000E+00
  0.00000000E+00  0.00000000E+00  0.00000000E+00
  0.00000000E+00  0.00000000E+00  0.00000000E+00
  0.00000000E+00  0.00000000E+00  0.00000000E+00
  0.00000000E+00  0.00000000E+00  0.00000000E+00
  0.00000000E+00  0.00000000E+00  0.00000000E+00
  0.00000000E+00  0.00000000E+00  0.00000000E+00
  0.00000000E+00  0.00000000E+00  0.00000000E+00
  0.00000000E+00  0.00000000E+00  0.00000000E+00
  0.00000000E+00  0.00000000E+00  0.00000000E+00
  0.00000000E+00  0.00000000E+00  0.00000000E+00
  0.00000000E+00  0.00000000E+00  0.00000000E+00
  0.00000000E+00  0.00000000E+00  0.00000000E+00
  0.00000000E+00  0.00000000E+00  0.00000000E+00
  0.00000000E+00  0.00000000E+00  0.00000000E+00
  0.00000000E+00  0.00000000E+00  0.00000000E+00
  0.00000000E+00  0.00000000E+00  0.00000000E+00
  0.00000000E+00  0.00000000E+00  0.00000000E+00
  0.00000000E+00  0.00000000E+00  0.00000000E+00
  0.00000000E+00  0.00000000E+00  0.00000000E+00
  0.00000000E+00  0.00000000E+00  0.00000000E+00
  0.00000000E+00  0.00000000E+00  0.00000000E+00
  0.00000000E+00  0.00000000E+00  0.00000000E+00
  0.00000000E+00  0.00000000E+00  0.00000000E+00
  0.00000000E+00  0.00000000E+00  0.00000000E+00
  0.00000000E+00  0.00000000E+00  0.00000000E+00
  0.00000000E+00  0.00000000E+00  0.00000000E+00
  0.00000000E+00  0.00000000E+00  0.00000000E+00
  0.00000000E+00  0.00000000E+00  0.00000000E+00
  0.00000000E+00  0.00000000E+00  0.00000000E+00
  0.00000000E+00  0.00000000E+00  0.00000000E+00
  0.00000000E+00  0.00000000E+00  0.00000000E+00
  0.00000000E+00  0.00000000E+00  0.00000000E+00
  0.00000000E+00  0.00000000E+00  0.00000000E+00
  0.00000000E+00  0.00000000E+00  0.00000000E+00
  0.00000000E+00  0.00000000E+00  0.00000000E+00
  0.00000000E+00  0.00000000E+00  0.00000000E+00
  0.00000000E+00  0.00000000E+00  0.00000000E+00
  0.00000000E+00  0.00000000E+00  0.00000000E+00
  0.00000000E+00  0.00000000E+00  0.00000000E+00
  0.00000000E+00  0.00000000E+00  0.00000000E+00
  0.00000000E+00  0.00000000E+00  0.00000000E+00
  0.00000000E+00  0.00000000E+00  0.00000000E+00
  0.00000000E+00  0.00000000E+00  0.00000000E+00
  0.00000000E+00  0.00000000E+00  0.00000000E+00
  0.00000000E+00  0.00000000E+00  0.00000000E+00
  0.00000000E+00  0.00000000E+00  0.00000000E+00
  0.00000000E+00  0.00000000E+00  0.00000000E+00
  0.00000000E+00  0.00000000E+00  0.00000000E+00
  0.00000000E+00  0.00000000E+00  0.00000000E+00
  0.00000000E+00  0.00000000E+00  0.00000000E+00
  0.00000000E+00  0.00000000E+00  0.00000000E+00
  0.00000000E+00  0.00000000E+00  0.00000000E+00
  0.00000000E+00  0.00000000E+00  0.00000000E+00
  0.00000000E+00  0.00000000E+00  0.00000000E+00
  0.00000000E+00  0.00000000E+00  0.00000000E+00
  0.00000000E+00  0.00000000E+00  0.00000000E+00
  0.00000000E+00  0.00000000E+00  0.00000000E+00
  0.00000000E+00  0.00000000E+00  0.00000000E+00
  0.00000000E+00  0.00000000E+00  0.00000000E+00
  0.00000000E+00  0.00000000E+00  0.00000000E+00
  0.00000000E+00  0.00000000E+00  0.00000000E+00
  0.00000000E+00  0.00000000E+00  0.00000000E+00
  0.00000000E+00  0.00000000E+00  0.00000000E+00
  0.00000000E+00  0.00000000E+00  0.00000000E+00
  0.00000000E+00  0.00000000E+00  0.00000000E+00
  0.00000000E+00  0.00000000E+00  0.00000000E+00
  0.00000000E+00  0.00000000E+00  0.00000000E+00
  0.00000000E+00  0.00000000E+00  0.00000000E+00
  0.00000000E+00  0.00000000E+00  0.00000000E+00
  0.00000000E+00  0.00000000E+00  0.00000000E+00
  0.00000000E+00  0.00000000E+00  0.00000000E+00
  0.00000000E+00  0.00000000E+00  0.00000000E+00
  0.00000000E+00  0.00000000E+00  0.00000000E+00
  0.00000000E+00  0.00000000E+00  0.00000000E+00
  0.00000000E+00  0.00000000E+00  0.00000000E+00
  0.00000000E+00  0.00000000E+00  0.00000000E+00
  0.00000000E+00  0.00000000E+00  0.00000000E+00
  0.00000000E+00  0.00000000E+00  0.00000000E+00
  0.00000000E+00  0.00000000E+00  0.00000000E+00
  0.00000000E+00  0.00000000E+00  0.00000000E+00
  0.00000000E+00  0.00000000E+00  0.00000000E+00
  0.00000000E+00  0.00000000E+00  0.00000000E+00
  0.00000000E+00  0.00000000E+00  0.00000000E+00
  0.00000000E+00  0.00000000E+00  0.00000000E+00
  0.00000000E+00  0.00000000E+00  0.00000000E+00
  0.00000000E+00  0.00000000E+00  0.00000000E+00
  0.00000000E+00  0.00000000E+00  0.00000000E+00
  0.00000000E+00  0.00000000E+00  0.00000000E+00
  0.00000000E+00  0.00000000E+00  0.00000000E+00
  0.00000000E+00  0.00000000E+00  0.00000000E+00
  0.00000000E+00  0.00000000E+00  0.00000000E+00
  0.00000000E+00  0.00000000E+00  0.00000000E+00
  0.00000000E+00  0.00000000E+00  0.00000000E+00
  0.00000000E+00  0.00000000E+00  0.00000000E+00
  0.00000000E+00  0.00000000E+00  0.00000000E+00
  0.00000000E+00  0.00000000E+00  0.00000000E+00
  0.00000000E+00  0.00000000E+00  0.00000000E+00
  0.00000000E+00  0.00000000E+00  0.00000000E+00
  0.00000000E+00  0.00000000E+00  0.00000000E+00
  0.00000000E+00  0.00000000E+00  0.00000000E+00
  0.00000000E+00  0.00000000E+00  0.00000000E+00
  0.00000000E+00  0.00000000E+00  0.00000000E+00
  0.00000000E+00  0.00000000E+00  0.00000000E+00
  0.00000000E+00  0.00000000E+00  0.00000000E+00
  0.00000000E+00  0.00000000E+00  0.00000000E+00
  0.00000000E+00  0.00000000E+00  0.00000000E+00
  0.00000000E+00  0.00000000E+00  0.00000000E+00
  0.00000000E+00  0.00000000E+00  0.00000000E+00
  0.00000000E+00  0.00000000E+00  0.00000000E+00
  0.00000000E+00  0.00000000E+00  0.00000000E+00
  0.00000000E+00  0.00000000E+00  0.00000000E+00
  0.00000000E+00  0.00000000E+00  0.00000000E+00
  0.00000000E+00  0.00000000E+00  0.00000000E+00