 C  H  O Si  W                          
   1.0000000000000000     
    23.4112945954000011    0.0000000000000000    0.0000000000000000
     0.0000000000000000   18.1212369513999967    0.0000000000000000
     0.0000000000000000    0.0000000000000000   26.8833665072999999
   C    H    O    Si   W 
     4    52   154    65     1
Selective dynamics
Direct
  0.5526165996677292  0.4645485624290728  0.7952752623571584   T   T   T
  0.5338245062802187  0.5125362521208956  0.7600575520455450   T   T   T
  0.5550387844087439  0.3817358034565785  0.7927136755336122   T   T   T
  0.5406574496776102  0.5959279384035483  0.7678163570796244   T   T   T
  0.7604841617039355  0.1037034533584915  0.6509501427339117   T   T   T
  0.9264276758775409  0.2786689628389283  0.3563349293400009   F   F   F
  0.7933396966928186  0.2072788972396751  0.3734565163880745   F   F   F
  0.9745391127316694  0.9436086005532900  0.3253027906056829   F   F   F
  0.6257326647787878  0.9634728499897562  0.3752311999972449   F   F   F
  0.8205383986272707  0.9950066635937915  0.3689926296547128   F   F   F
  0.7499930738495308  0.1411787558468731  0.4580381926778543   F   F   F
  0.9154354274776608  0.2494657234184672  0.5090243309934195   T   T   T
  0.5834928632816769  0.3042635462298904  0.3059271726651787   F   F   F
  0.8913169335183184  0.3346518332214998  0.6160745731703940   T   T   T
  0.5888971355364703  0.3593761219795368  0.6150365575640677   T   T   T
  0.5932670276547043  0.8711876515799304  0.5782001002082353   T   T   T
  0.0339821435454937  0.3380265400872347  0.6518648515831487   T   T   T
  0.9352705076763712  0.4195142257503406  0.4541014552468710   F   F   F
  0.7461383787735159  0.5303119924306614  0.4224881911837883   F   F   F
  0.7970120017131421  0.3818017720665381  0.6342922384094862   T   T   T
  0.5911020174091490  0.5686828267211084  0.3780347436188976   F   F   F
  0.7184337867802384  0.6459327858135424  0.3834605945055571   F   F   F
  0.8411529142292764  0.5424265960688572  0.4195961671555111   F   F   F
  0.0047645486475076  0.6037981492295330  0.3577783004107076   F   F   F
  0.8283586993267491  0.7123566734117333  0.4679422553080954   F   F   F
  0.8771848167034761  0.5988252847527065  0.7212705343545807   T   T   T
  0.5199903139612303  0.9855647615614487  0.4217030704774842   F   F   F
  0.2230945721612159  0.9801548351936802  0.3932050219465495   F   F   F
  0.2163736907482345  0.2378514580028224  0.3192303272980936   F   F   F
  0.1575010503616241  0.3298062300070157  0.2789829167401123   F   F   F
  0.3415468765692253  0.1555857055490506  0.3307727584112428   F   F   F
  0.2227158616647102  0.0457589260230407  0.3227384335196248   F   F   F
  0.5114328852785661  0.8241388628964046  0.5465931973643094   T   T   T
  0.3802254812527437  0.2422710485992923  0.6474124814588507   T   T   T
  0.2444040861176546  0.0929605341488866  0.5985985129625178   T   T   T
  0.3153809713091036  0.4871364645735810  0.4424346656312608   F   F   F
  0.4089561837294582  0.4387348586869422  0.4056905975982730   F   F   F
  0.3984995032241372  0.7931136076499854  0.3887867966224334   F   F   F
  0.2442023571188656  0.6554300787776768  0.2943268807443218   F   F   F
  0.3117413815567005  0.4184757135367221  0.3692576443915385   F   F   F
  0.4054742948844066  0.5842796534641153  0.3388198885480591   F   F   F
  0.1393576205880507  0.4879736465794622  0.3519294596467617   F   F   F
  0.5932693451318087  0.6979871284243586  0.3523979868156601   F   F   F
  0.4690068301459220  0.8614274692379169  0.4438283837725479   F   F   F
  0.1218192773944864  0.3228357880607859  0.6116737761766302   T   T   T
  0.0727124269158708  0.6651883594179395  0.6456705434992074   T   T   T
  0.2423206016659805  0.3846308056319856  0.6825194557780705   T   T   T
  0.2446651892740732  0.8145960275333195  0.6690291336528560   T   T   T
  0.5698472978527036  0.4884028838902026  0.8298091071196296   T   T   T
  0.5599358788464315  0.4432438487104733  0.6948706015495603   T   T   T
  0.5403849882032787  0.3570661567947084  0.8279526850748553   T   T   T
  0.5298334711449897  0.3587483281246051  0.7620825640790727   T   T   T
  0.5998681301614184  0.3638578770405729  0.7876829785425556   T   T   T
  0.4995094580722679  0.6211246569223263  0.7782523980428309   T   T   T
  0.5720360466157146  0.6068931617128541  0.7974552651256630   T   T   T
  0.5550183035074738  0.6242105060366612  0.7338498762151175   T   T   T
  0.3689417337945073  0.6483550974205130  0.4390000177989322   F   F   F
  0.3468156499810249  0.5040338679473777  0.4203881275781143   F   F   F
  0.8606902930144713  0.5660586510994889  0.6967099514020205   T   T   T
  0.3488661347054105  0.9573317789201568  0.5303405804204289   T   T   T
  0.0334191392804044  0.9326208735753525  0.5284823697988159   T   T   T
  0.6363554822990451  0.0788685455599989  0.4893766723794641   F   F   F
  0.0686461464807948  0.0522654214745515  0.3951107345583225   F   F   F
  0.4518995424319527  0.1295623248292515  0.4205972814427668   F   F   F
  0.8058841492861291  0.2136501796918466  0.4831666074103040   F   F   F
  0.9730581620161800  0.1815291733797579  0.5988613432181182   T   T   T
  0.2747652928840907  0.2991728710101214  0.4485122250900346   F   F   F
  0.5563541661963498  0.7750912911781072  0.4417510122690658   F   F   F
  0.3926272566285647  0.9700438335093011  0.6192544883186457   T   T   T
  0.1775172398589788  0.3499684493290118  0.4052731245300478   F   F   F
  0.8666217882008453  0.6839692534238040  0.6372532885471642   T   T   T
  0.8656960102276017  0.9671769320775354  0.4670384592975196   F   F   F
  0.3010471365896024  0.7609368348742791  0.4579252567998537   F   F   F
  0.4216109456219570  0.2612522170148708  0.3795963030273342   F   F   F
  0.8110807384833123  0.4654559189061231  0.5200883029807457   T   T   T
  0.9834903514842495  0.0727905147523842  0.5212384966172721   T   T   T
  0.5175296182993065  0.4613013142399538  0.6230230430737151   T   T   T
  0.0345364061182565  0.9199477616519545  0.4294052572495062   F   F   F
  0.9630365419446250  0.3031953079439518  0.3512576249606170   F   F   F
  0.0696266904488567  0.3361057655302346  0.3763717815531962   F   F   F
  0.2082956575310035  0.7286442941956537  0.3953601014000157   F   F   F
  0.0389012629134911  0.4191019155796809  0.4991087535393461   F   F   F
  0.2395211800165882  0.2857159168658256  0.5878530846270493   T   T   T
  0.3976459126441867  0.1939227805298884  0.6444967705207389   T   T   T
  0.4554482503290274  0.5622866264136235  0.5802343488597757   T   T   T
  0.9097372593253468  0.7491724730473805  0.5574886295952908   T   T   T
  0.8691272713299156  0.1080433423588048  0.4422783307318099   F   F   F
  0.5725767945756743  0.6673318528661909  0.3761317316733468   F   F   F
  0.1424265590957958  0.1591254988132746  0.3759722435750490   F   F   F
  0.3500847111705099  0.7661433460181755  0.6067280127346351   T   T   T
  0.9109960497951874  0.8450475714254182  0.4831796236075121   F   F   F
  0.0613380104910135  0.5368717058331640  0.4422534820284341   F   F   F
  0.7083390277084121  0.5551665518466606  0.4199576800001736   F   F   F
  0.0754872572765848  0.8168068048942771  0.4829941554854784   F   F   F
  0.7004647711973604  0.8275557150113073  0.4326352913293690   F   F   F
  0.7301482360568698  0.0489919667788499  0.5430011197356919   T   T   T
  0.9189152803598617  0.3020663250289246  0.6320962263253591   T   T   T
  0.7347811359882073  0.8526645748810822  0.6129516975025240   T   T   T
  0.6251219543867705  0.5273940020615839  0.4863787091564404   F   F   F
  0.5565732987385132  0.6297030403834256  0.4672494240254110   F   F   F
  0.4262151618874981  0.2451547678720587  0.5550597296307842   T   T   T
  0.9782900938336425  0.7282436336050182  0.4767956400891720   F   F   F
  0.6540241894675702  0.5943284670652815  0.6336345830156631   T   T   T
  0.3971568613390062  0.7447382550390742  0.5157092001139034   T   T   T
  0.6026900685395375  0.5176654517715136  0.3856709925442061   F   F   F
  0.7191472000589485  0.6315051453400216  0.5571468941249833   T   T   T
  0.1467625757929767  0.3639816271621470  0.6199018335501663   T   T   T
  0.0663593798731270  0.5485713781716015  0.5419612462821490   T   T   T
  0.8188414985965267  0.8845874198077581  0.5366495062896774   T   T   T
  0.8282155306614527  0.3553851427237973  0.4519033357708793   F   F   F
  0.5274615950371526  0.2987005353447358  0.5324867331306393   T   T   T
  0.7366976393353610  0.4993993247117672  0.5953238983842581   T   T   T
  0.5574339360995921  0.1724311051770471  0.3949085375269945   F   F   F
  0.8059640829904495  0.2564125704700402  0.3832928600033014   F   F   F
  0.2374462167629616  0.9532507504721153  0.5079195554207132   F   F   F
  0.6928384746849545  0.7765098224845701  0.5412896639689322   T   T   T
  0.9238203107635954  0.9497687452401706  0.5529816729472330   T   T   T
  0.5257372223541736  0.3177811195808147  0.3985559351687087   F   F   F
  0.4689016541010886  0.9887478564525125  0.5459913625404056   T   T   T
  0.8377089000377822  0.0947944595832553  0.5397937070652503   T   T   T
  0.5379032530424510  0.1164174893117362  0.4862370923690094   F   F   F
  0.3501934425152129  0.1866087324322407  0.4396363938456389   F   F   F
  0.0117603228167908  0.9624138998997935  0.3352437574830063   F   F   F
  0.4602856211118151  0.5783857441883313  0.6748164583674097   T   T   T
  0.6549652215522386  0.9253975043083074  0.3792282539811964   F   F   F
  0.0762933429470323  0.6860262574042792  0.4358810225764742   F   F   F
  0.4511117801128037  0.4034924225836747  0.5524681768237514   T   T   T
  0.7192194366265099  0.7004208513439565  0.3795829994963285   F   F   F
  0.4483613262625781  0.7010982765514697  0.6033610916432579   T   T   T
  0.7525510591055777  0.7093245754016806  0.4762954835743187   F   F   F
  0.7785737327948894  0.1210906270034187  0.6207212765547823   T   T   T
  0.9932746155468877  0.3080134734220721  0.4484029789284989   F   F   F
  0.5306226529940972  0.5062789740719964  0.5260921113050401   T   T   T
  0.8167775852155614  0.4990617344698620  0.4234422052650615   F   F   F
  0.2358045967789550  0.1447831553992600  0.6053093859580727   T   T   T
  0.2035333057163413  0.8307013160788728  0.4705336293601903   F   F   F
  0.2399823574372846  0.5585996395181212  0.5227877796299722   T   T   T
  0.0612319450314729  0.6255123951642503  0.6236907968485141   T   T   T
  0.0460740722049948  0.6023466921755443  0.3541786312221902   F   F   F
  0.8005893528851402  0.9785870289038812  0.6057477176470485   T   T   T
  0.5379909097114037  0.0276974917800175  0.4045027517534763   F   F   F
  0.6062456136074204  0.3128560833998435  0.6051321125875049   T   T   T
  0.8615461075340960  0.0040808494918636  0.3692063291070653   F   F   F
  0.0949113079819810  0.1490228354028815  0.4670823258906296   F   F   F
  0.1714503881136906  0.2039889272098279  0.5309050834253526   T   T   T
  0.6409886548841044  0.7044387202342079  0.4548155821771758   F   F   F
  0.4367877834064799  0.4097684809000555  0.3864132536704119   F   F   F
  0.5747080274334593  0.0579016498180067  0.5710015232078476   T   T   T
  0.1514377462021059  0.5934080234999826  0.3889583608347777   F   F   F
  0.2677397900769023  0.6023375314212132  0.3923062966030031   F   F   F
  0.4402584600309112  0.3221981823130449  0.4703244327181508   F   F   F
  0.2380096658898907  0.1585111293566044  0.4299011866524154   F   F   F
  0.0727055265240111  0.1503708618207114  0.5625619497152456   T   T   T
  0.8449720676318933  0.5440017684641774  0.5997812123745163   T   T   T
  0.6211794284267498  0.2799398765994923  0.4109054511829981   F   F   F
  0.6026669933739228  0.8915266658304475  0.4672234595428861   F   F   F
  0.0313853912181870  0.1952898291212790  0.3889918752683101   F   F   F
  0.6076214128822173  0.1954463672947497  0.5474954630853190   T   T   T
  0.1327997263300347  0.9383546445758171  0.4794870772378772   F   F   F
  0.0802921053910950  0.2804256154770641  0.5115709525545071   T   T   T
  0.3728933629330484  0.1029070078280228  0.5690793567944610   T   T   T
  0.0666953112456738  0.6970220826015421  0.5357113333453327   T   T   T
  0.6664883802866157  0.4153848775992941  0.4300115561107631   F   F   F
  0.7993205949423228  0.7294489147939345  0.5641259280860211   T   T   T
  0.7038385586134339  0.9572084333329656  0.4701845621740759   F   F   F
  0.5956326509674810  0.6306983418804037  0.5540128224389065   T   T   T
  0.7228402998664549  0.2936846541148483  0.4516681052539582   F   F   F
  0.9775628670444192  0.3141308432723449  0.5472473006117085   T   T   T
  0.1584213665092520  0.6299498017891665  0.5705821186842499   T   T   T
  0.6333338448107071  0.3267830793000925  0.5078007023299378   F   F   F
  0.8193856681547445  0.3963356384775025  0.6055301644223050   T   T   T
  0.9585781980894978  0.0272430444030434  0.4169530046787955   F   F   F
  0.2821374340662501  0.1950346127942097  0.5186640933685069   T   T   T
  0.2492575497532457  0.4430328891806070  0.4610556955705079   F   F   F
  0.2713962101016705  0.8493822802144422  0.5686525590477061   T   T   T
  0.2036681493187373  0.6855731694819696  0.4868887178860462   F   F   F
  0.1471234534495878  0.4760698767055516  0.4925449251270066   F   F   F
  0.2244885839070392  0.4226664917883980  0.5568645788970557   T   T   T
  0.9114169782859136  0.4527445982196738  0.4737188145108959   F   F   F
  0.8697881761182842  0.7045601105568409  0.4641535209108483   F   F   F
  0.7381202078118392  0.0928346185702935  0.4452296472671975   F   F   F
  0.2221834364607460  0.9297811898377830  0.4079468165165281   F   F   F
  0.2519421309733474  0.4019074125636166  0.6494691412411697   T   T   T
  0.6303831946391227  0.8833293336439993  0.5935062763024206   T   T   T
  0.4102232653459481  0.7890623920405417  0.4234373851432949   F   F   F
  0.9177713527308597  0.1960382937010650  0.5082451459005242   F   F   F
  0.1325470584190001  0.4435361138679994  0.3322726622007863   F   F   F
  0.1551476808853849  0.3035232552477680  0.3105604161752922   F   F   F
  0.3730051452693530  0.1309070432977180  0.3479534200993726   F   F   F
  0.0345305891570291  0.2918964313687056  0.6334984723154875   T   T   T
  0.5726892607782261  0.2568681914203168  0.3200996781806822   F   F   F
  0.2447106199381111  0.7693810277304465  0.6497646724152588   T   T   T
  0.2073742988973706  0.6484050497390186  0.3103690611938177   F   F   F
  0.2753744117793318  0.3921912990854679  0.3673758273212613   F   F   F
  0.3653508124869589  0.5975866322176486  0.3422207943191111   F   F   F
  0.2263808502218509  0.0561808240814585  0.3581188824802055   F   F   F
  0.2412033350308818  0.1960782276637332  0.3293429668079639   F   F   F
  0.5012729261715734  0.8923016219130631  0.4548416832162587   F   F   F
  0.5503964883815371  0.8276480130345405  0.5343234904413663   T   T   T
  0.5447444994942714  0.6470530965548420  0.6357586769896031   T   T   T
  0.4787605953358778  0.1203011182735523  0.5962290889992943   T   T   T
  0.2628344387665109  0.6937691721275741  0.5684942593049342   T   T   T
  0.4438143876303968  0.8445389448211884  0.5815807057772702   T   T   T
  0.7655351693027725  0.6168018782711115  0.6493953657397284   T   T   T
  0.8446126300990926  0.8315679724754688  0.6230164353346339   T   T   T
  0.6389874040586747  0.7392215620267280  0.6201516584128655   T   T   T
  0.0081373129614377  0.0334543356748114  0.6029779198140659   T   T   T
  0.2850691723850929  0.0008525086394187  0.5939283193003106   T   T   T
  0.5042643858674012  0.9699691677190430  0.6282108365053887   T   T   T
  0.4500148549178249  0.4120438167347302  0.7102354455391193   T   T   T
  0.0832252792583148  0.6064203007651798  0.4064130837160320   F   F   F
  0.4091620865202188  0.7632716624726186  0.5753946286511535   T   T   T
  0.8417638189676637  0.4414531151631493  0.4678389696388976   F   F   F
  0.0170894936830805  0.9904820388830231  0.3936113541928137   F   F   F
  0.0147002066459194  0.2841902736836772  0.3910814136036507   F   F   F
  0.0091882768570812  0.1150866521185065  0.5725089022122205   T   T   T
  0.6088554282565113  0.6568236965946284  0.6109906903318674   T   T   T
  0.2139726322484066  0.4757728133355883  0.5097377120794278   T   T   T
  0.9150621278077509  0.7555609373921541  0.4962545438487922   F   F   F
  0.5205785424995497  0.1104556260576075  0.4259865881079392   F   F   F
  0.4189941754277626  0.1679691865005140  0.5891385576935093   T   T   T
  0.0834525281692322  0.1391720770259113  0.4069808717903314   F   F   F
  0.7018979345349692  0.0448462544573900  0.4873230277072054   F   F   F
  0.6650593546526977  0.8980374634385981  0.4374764361266443   F   F   F
  0.6500987440092842  0.5040270570271090  0.4301508871204760   F   F   F
  0.1984606475676856  0.9124822313593555  0.4639906909803457   F   F   F
  0.2143244892417115  0.3664125607833881  0.6035898217304023   T   T   T
  0.6732900468761756  0.8134171055284014  0.5944480822324252   T   T   T
  0.2167666001987243  0.6414457509263443  0.5384565458890975   T   T   T
  0.3687891183983183  0.7351277332740764  0.4592092972079129   F   F   F
  0.7972152283443279  0.8883236530623861  0.5956445193478714   T   T   T
  0.8797612784301094  0.9122595847004717  0.5119969190108193   T   T   T
  0.5751361104093036  0.5731432980603088  0.5111614899107266   T   T   T
  0.5898760519723893  0.1154195884228812  0.5252482787395891   T   T   T
  0.8581223412116756  0.1521132323139867  0.4951759473310489   F   F   F
  0.8354647143602278  0.6035484835639124  0.6458227237510457   T   T   T
  0.1337385207956885  0.3603189035945249  0.3568722791356791   F   F   F
  0.7906552883383853  0.2799392456050427  0.4418726542293072   F   F   F
  0.3991760968159852  0.1774948439022879  0.3960031981861079   F   F   F
  0.8559627513814192  0.7500067886827324  0.5965287758193369   T   T   T
  0.2829127709143080  0.9340410147801350  0.5495596805537417   T   T   T
  0.0230747323006639  0.3304475145523895  0.5022455100715746   F   F   F
  0.5745593848382811  0.6954900809313358  0.4355643604055430   F   F   F
  0.2302409542512009  0.7526004965268882  0.4519695445397645   F   F   F
  0.5937628277509148  0.2840995040507224  0.5483802416463632   T   T   T
  0.9751480253561837  0.2723119918026597  0.6026624863580707   T   T   T
  0.8889063590695159  0.0254089988525621  0.4242001869335610   F   F   F
  0.1047172494069315  0.1954865164461737  0.5177466237312061   T   T   T
  0.0481456608991806  0.7330370933910686  0.4826301941714348   F   F   F
  0.2320055135724104  0.2055777004085400  0.5610603976853810   T   T   T
  0.5614078070968063  0.2577852696884548  0.3812261074005363   F   F   F
  0.4773246193122134  0.6236116518920269  0.6225941060006690   T   T   T
  0.2809587868992196  0.7701451429137549  0.5976485610516491   T   T   T
  0.2085008253050660  0.6433998444573277  0.3717945352858223   F   F   F
  0.7403257334690636  0.7108580415761168  0.5358156346061591   T   T   T
  0.9865241566141734  0.9906566973349129  0.5503452900971411   T   T   T
  0.7031045578374417  0.7368181531158413  0.4342603982179796   F   F   F
  0.7878818646720234  0.0593960367367004  0.5767576314832610   T   T   T
  0.4563138980148480  0.3284515949804003  0.4092878915485585   F   F   F
  0.4505249309599151  0.9338176042792625  0.5941135900757999   T   T   T
  0.5091453777027652  0.0394320496231373  0.5858654155149239   T   T   T
  0.2442471516899545  0.3704063238346720  0.4209471039025985   F   F   F
  0.6585253437214931  0.3300021108019919  0.4503479098948588   F   F   F
  0.4600569909730368  0.3172052579086611  0.5288408960327473   T   T   T
  0.3372993678552234  0.5899425417192177  0.3990830096962270   F   F   F
  0.8030688035598104  0.4764686575638351  0.5797233595877671   T   T   T
  0.0692097893945274  0.8988591556575116  0.4805055068825652   F   F   F
  0.2119075788647606  0.1444543212654636  0.3735965933534686   F   F   F
  0.0782328566383796  0.4939849950151185  0.4946876202126234   F   F   F
  0.5575701889662170  0.8523400985831628  0.4747302534090920   F   F   F
  0.7181577360166571  0.5847966865041059  0.6096050777867816   T   T   T
  0.2866421242385897  0.2101017385025088  0.4591107728955208   F   F   F
  0.0882351006522200  0.6255549846050030  0.5676178983738822   T   T   T
  0.3540444271817051  0.0172623406862087  0.5784553987387469   T   T   T
  0.4861979657706925  0.4798441338748134  0.5696040347826212   T   T   T
  0.4940374311926021  0.4828233216970759  0.6923132438092168   T   T   T

  0.00000000E+00  0.00000000E+00  0.00000000E+00
  0.00000000E+00  0.00000000E+00  0.00000000E+00
  0.00000000E+00  0.00000000E+00  0.00000000E+00
  0.00000000E+00  0.00000000E+00  0.00000000E+00
  0.00000000E+00  0.00000000E+00  0.00000000E+00
  0.00000000E+00  0.00000000E+00  0.00000000E+00
  0.00000000E+00  0.00000000E+00  0.00000000E+00
  0.00000000E+00  0.00000000E+00  0.00000000E+00
  0.00000000E+00  0.00000000E+00  0.00000000E+00
  0.00000000E+00  0.00000000E+00  0.00000000E+00
  0.00000000E+00  0.00000000E+00  0.00000000E+00
  0.00000000E+00  0.00000000E+00  0.00000000E+00
  0.00000000E+00  0.00000000E+00  0.00000000E+00
  0.00000000E+00  0.00000000E+00  0.00000000E+00
  0.00000000E+00  0.00000000E+00  0.00000000E+00
  0.00000000E+00  0.00000000E+00  0.00000000E+00
  0.00000000E+00  0.00000000E+00  0.00000000E+00
  0.00000000E+00  0.00000000E+00  0.00000000E+00
  0.00000000E+00  0.00000000E+00  0.00000000E+00
  0.00000000E+00  0.00000000E+00  0.00000000E+00
  0.00000000E+00  0.00000000E+00  0.00000000E+00
  0.00000000E+00  0.00000000E+00  0.00000000E+00
  0.00000000E+00  0.00000000E+00  0.00000000E+00
  0.00000000E+00  0.00000000E+00  0.00000000E+00
  0.00000000E+00  0.00000000E+00  0.00000000E+00
  0.00000000E+00  0.00000000E+00  0.00000000E+00
  0.00000000E+00  0.00000000E+00  0.00000000E+00
  0.00000000E+00  0.00000000E+00  0.00000000E+00
  0.00000000E+00  0.00000000E+00  0.00000000E+00
  0.00000000E+00  0.00000000E+00  0.00000000E+00
  0.00000000E+00  0.00000000E+00  0.00000000E+00
  0.00000000E+00  0.00000000E+00  0.00000000E+00
  0.00000000E+00  0.00000000E+00  0.00000000E+00
  0.00000000E+00  0.00000000E+00  0.00000000E+00
  0.00000000E+00  0.00000000E+00  0.00000000E+00
  0.00000000E+00  0.00000000E+00  0.00000000E+00
  0.00000000E+00  0.00000000E+00  0.00000000E+00
  0.00000000E+00  0.00000000E+00  0.00000000E+00
  0.00000000E+00  0.00000000E+00  0.00000000E+00
  0.00000000E+00  0.00000000E+00  0.00000000E+00
  0.00000000E+00  0.00000000E+00  0.00000000E+00
  0.00000000E+00  0.00000000E+00  0.00000000E+00
  0.00000000E+00  0.00000000E+00  0.00000000E+00
  0.00000000E+00  0.00000000E+00  0.00000000E+00
  0.00000000E+00  0.00000000E+00  0.00000000E+00
  0.00000000E+00  0.00000000E+00  0.00000000E+00
  0.00000000E+00  0.00000000E+00  0.00000000E+00
  0.00000000E+00  0.00000000E+00  0.00000000E+00
  0.00000000E+00  0.00000000E+00  0.00000000E+00
  0.00000000E+00  0.00000000E+00  0.00000000E+00
  0.00000000E+00  0.00000000E+00  0.00000000E+00
  0.00000000E+00  0.00000000E+00  0.00000000E+00
  0.00000000E+00  0.00000000E+00  0.00000000E+00
  0.00000000E+00  0.00000000E+00  0.00000000E+00
  0.00000000E+00  0.00000000E+00  0.00000000E+00
  0.00000000E+00  0.00000000E+00  0.00000000E+00
  0.00000000E+00  0.00000000E+00  0.00000000E+00
  0.00000000E+00  0.00000000E+00  0.00000000E+00
  0.00000000E+00  0.00000000E+00  0.00000000E+00
  0.00000000E+00  0.00000000E+00  0.00000000E+00
  0.00000000E+00  0.00000000E+00  0.00000000E+00
  0.00000000E+00  0.00000000E+00  0.00000000E+00
  0.00000000E+00  0.00000000E+00  0.00000000E+00
  0.00000000E+00  0.00000000E+00  0.00000000E+00
  0.00000000E+00  0.00000000E+00  0.00000000E+00
  0.00000000E+00  0.00000000E+00  0.00000000E+00
  0.00000000E+00  0.00000000E+00  0.00000000E+00
  0.00000000E+00  0.00000000E+00  0.00000000E+00
  0.00000000E+00  0.00000000E+00  0.00000000E+00
  0.00000000E+00  0.00000000E+00  0.00000000E+00
  0.00000000E+00  0.00000000E+00  0.00000000E+00
  0.00000000E+00  0.00000000E+00  0.00000000E+00
  0.00000000E+00  0.00000000E+00  0.00000000E+00
  0.00000000E+00  0.00000000E+00  0.00000000E+00
  0.00000000E+00  0.00000000E+00  0.00000000E+00
  0.00000000E+00  0.00000000E+00  0.00000000E+00
  0.00000000E+00  0.00000000E+00  0.00000000E+00
  0.00000000E+00  0.00000000E+00  0.00000000E+00
  0.00000000E+00  0.00000000E+00  0.00000000E+00
  0.00000000E+00  0.00000000E+00  0.00000000E+00
  0.00000000E+00  0.00000000E+00  0.00000000E+00
  0.00000000E+00  0.00000000E+00  0.00000000E+00
  0.00000000E+00  0.00000000E+00  0.00000000E+00
  0.00000000E+00  0.00000000E+00  0.00000000E+00
  0.00000000E+00  0.00000000E+00  0.00000000E+00
  0.00000000E+00  0.00000000E+00  0.00000000E+00
  0.00000000E+00  0.00000000E+00  0.00000000E+00
  0.00000000E+00  0.00000000E+00  0.00000000E+00
  0.00000000E+00  0.00000000E+00  0.00000000E+00
  0.00000000E+00  0.00000000E+00  0.00000000E+00
  0.00000000E+00  0.00000000E+00  0.00000000E+00
  0.00000000E+00  0.00000000E+00  0.00000000E+00
  0.00000000E+00  0.00000000E+00  0.00000000E+00
  0.00000000E+00  0.00000000E+00  0.00000000E+00
  0.00000000E+00  0.00000000E+00  0.00000000E+00
  0.00000000E+00  0.00000000E+00  0.00000000E+00
  0.00000000E+00  0.00000000E+00  0.00000000E+00
  0.00000000E+00  0.00000000E+00  0.00000000E+00
  0.00000000E+00  0.00000000E+00  0.00000000E+00
  0.00000000E+00  0.00000000E+00  0.00000000E+00
  0.00000000E+00  0.00000000E+00  0.00000000E+00
  0.00000000E+00  0.00000000E+00  0.00000000E+00
  0.00000000E+00  0.00000000E+00  0.00000000E+00
  0.00000000E+00  0.00000000E+00  0.00000000E+00
  0.00000000E+00  0.00000000E+00  0.00000000E+00
  0.00000000E+00  0.00000000E+00  0.00000000E+00
  0.00000000E+00  0.00000000E+00  0.00000000E+00
  0.00000000E+00  0.00000000E+00  0.00000000E+00
  0.00000000E+00  0.00000000E+00  0.00000000E+00
  0.00000000E+00  0.00000000E+00  0.00000000E+00
  0.00000000E+00  0.00000000E+00  0.00000000E+00
  0.00000000E+00  0.00000000E+00  0.00000000E+00
  0.00000000E+00  0.00000000E+00  0.00000000E+00
  0.00000000E+00  0.00000000E+00  0.00000000E+00
  0.00000000E+00  0.00000000E+00  0.00000000E+00
  0.00000000E+00  0.00000000E+00  0.00000000E+00
  0.00000000E+00  0.00000000E+00  0.00000000E+00
  0.00000000E+00  0.00000000E+00  0.00000000E+00
  0.00000000E+00  0.00000000E+00  0.00000000E+00
  0.00000000E+00  0.00000000E+00  0.00000000E+00
  0.00000000E+00  0.00000000E+00  0.00000000E+00
  0.00000000E+00  0.00000000E+00  0.00000000E+00
  0.00000000E+00  0.00000000E+00  0.00000000E+00
  0.00000000E+00  0.00000000E+00  0.00000000E+00
  0.00000000E+00  0.00000000E+00  0.00000000E+00
  0.00000000E+00  0.00000000E+00  0.00000000E+00
  0.00000000E+00  0.00000000E+00  0.00000000E+00
  0.00000000E+00  0.00000000E+00  0.00000000E+00
  0.00000000E+00  0.00000000E+00  0.00000000E+00
  0.00000000E+00  0.00000000E+00  0.00000000E+00
  0.00000000E+00  0.00000000E+00  0.00000000E+00
  0.00000000E+00  0.00000000E+00  0.00000000E+00
  0.00000000E+00  0.00000000E+00  0.00000000E+00
  0.00000000E+00  0.00000000E+00  0.00000000E+00
  0.00000000E+00  0.00000000E+00  0.00000000E+00
  0.00000000E+00  0.00000000E+00  0.00000000E+00
  0.00000000E+00  0.00000000E+00  0.00000000E+00
  0.00000000E+00  0.00000000E+00  0.00000000E+00
  0.00000000E+00  0.00000000E+00  0.00000000E+00
  0.00000000E+00  0.00000000E+00  0.00000000E+00
  0.00000000E+00  0.00000000E+00  0.00000000E+00
  0.00000000E+00  0.00000000E+00  0.00000000E+00
  0.00000000E+00  0.00000000E+00  0.00000000E+00
  0.00000000E+00  0.00000000E+00  0.00000000E+00
  0.00000000E+00  0.00000000E+00  0.00000000E+00
  0.00000000E+00  0.00000000E+00  0.00000000E+00
  0.00000000E+00  0.00000000E+00  0.00000000E+00
  0.00000000E+00  0.00000000E+00  0.00000000E+00
  0.00000000E+00  0.00000000E+00  0.00000000E+00
  0.00000000E+00  0.00000000E+00  0.00000000E+00
  0.00000000E+00  0.00000000E+00  0.00000000E+00
  0.00000000E+00  0.00000000E+00  0.00000000E+00
  0.00000000E+00  0.00000000E+00  0.00000000E+00
  0.00000000E+00  0.00000000E+00  0.00000000E+00
  0.00000000E+00  0.00000000E+00  0.00000000E+00
  0.00000000E+00  0.00000000E+00  0.00000000E+00
  0.00000000E+00  0.00000000E+00  0.00000000E+00
  0.00000000E+00  0.00000000E+00  0.00000000E+00
  0.00000000E+00  0.00000000E+00  0.00000000E+00
  0.00000000E+00  0.00000000E+00  0.00000000E+00
  0.00000000E+00  0.00000000E+00  0.00000000E+00
  0.00000000E+00  0.00000000E+00  0.00000000E+00
  0.00000000E+00  0.00000000E+00  0.00000000E+00
  0.00000000E+00  0.00000000E+00  0.00000000E+00
  0.00000000E+00  0.00000000E+00  0.00000000E+00
  0.00000000E+00  0.00000000E+00  0.00000000E+00
  0.00000000E+00  0.00000000E+00  0.00000000E+00
  0.00000000E+00  0.00000000E+00  0.00000000E+00
  0.00000000E+00  0.00000000E+00  0.00000000E+00
  0.00000000E+00  0.00000000E+00  0.00000000E+00
  0.00000000E+00  0.00000000E+00  0.00000000E+00
  0.00000000E+00  0.00000000E+00  0.00000000E+00
  0.00000000E+00  0.00000000E+00  0.00000000E+00
  0.00000000E+00  0.00000000E+00  0.00000000E+00
  0.00000000E+00  0.00000000E+00  0.00000000E+00
  0.00000000E+00  0.00000000E+00  0.00000000E+00
  0.00000000E+00  0.00000000E+00  0.00000000E+00
  0.00000000E+00  0.00000000E+00  0.00000000E+00
  0.00000000E+00  0.00000000E+00  0.00000000E+00
  0.00000000E+00  0.00000000E+00  0.00000000E+00
  0.00000000E+00  0.00000000E+00  0.00000000E+00
  0.00000000E+00  0.00000000E+00  0.00000000E+00
  0.00000000E+00  0.00000000E+00  0.00000000E+00
  0.00000000E+00  0.00000000E+00  0.00000000E+00
  0.00000000E+00  0.00000000E+00  0.00000000E+00
  0.00000000E+00  0.00000000E+00  0.00000000E+00
  0.00000000E+00  0.00000000E+00  0.00000000E+00
  0.00000000E+00  0.00000000E+00  0.00000000E+00
  0.00000000E+00  0.00000000E+00  0.00000000E+00
  0.00000000E+00  0.00000000E+00  0.00000000E+00
  0.00000000E+00  0.00000000E+00  0.00000000E+00
  0.00000000E+00  0.00000000E+00  0.00000000E+00
  0.00000000E+00  0.00000000E+00  0.00000000E+00