 C  H  O Si  W                          
   1.0000000000000000     
    23.4112945954000011    0.0000000000000000    0.0000000000000000
     0.0000000000000000   18.1212369513999967    0.0000000000000000
     0.0000000000000000    0.0000000000000000   26.8833665072999999
   C    H    O    Si   W 
     4    52   154    65     1
Selective dynamics
Direct
  0.5483567588627997  0.5324355554944467  0.7259166727936757   T   T   T
  0.5114924839257466  0.5823507656847623  0.7540344843975579   T   T   T
  0.5651597702996174  0.4564614779188191  0.7440227575880641   T   T   T
  0.5362453547400006  0.6562592093826616  0.7703872966814986   T   T   T
  0.7616767919208279  0.1586662992939682  0.6510113158292362   T   T   T
  0.9264276758775409  0.3338528337127542  0.3563349293400009   F   F   F
  0.7933396966928186  0.2624627681135010  0.3734565163880745   F   F   F
  0.9745391127316694  0.9987924714271159  0.3253027906056829   F   F   F
  0.6257326647787878  0.0186567208635822  0.3752311999972449   F   F   F
  0.8205383986272707  0.0501905344676175  0.3689926296547128   F   F   F
  0.7499930738495308  0.1963626267206990  0.4580381926778543   F   F   F
  0.9156008183388225  0.3046501366163343  0.5094075073697203   T   T   T
  0.5834928632816769  0.3594474171037163  0.3059271726651787   F   F   F
  0.8915831587464300  0.3901262012474749  0.6160056382564489   T   T   T
  0.5836342544240735  0.4134657014544290  0.6146441935464410   T   T   T
  0.5934897719496229  0.9257169089380505  0.5781125366680187   T   T   T
  0.0338135262681463  0.3941741266694715  0.6514951485362609   T   T   T
  0.9352705076763712  0.4746980966241665  0.4541014552468710   F   F   F
  0.7461383787735159  0.5854958633044873  0.4224881911837883   F   F   F
  0.7977737056674759  0.4379438051649070  0.6348790279224207   T   T   T
  0.5911020174091490  0.6238666975949343  0.3780347436188976   F   F   F
  0.7184337867802384  0.7011166566873683  0.3834605945055571   F   F   F
  0.8411529142292764  0.5976104669426832  0.4195961671555111   F   F   F
  0.0047645486475076  0.6589820201033589  0.3577783004107076   F   F   F
  0.8283586993267491  0.7675405442855592  0.4679422553080954   F   F   F
  0.8782300308316116  0.6542603644875509  0.7206042142841390   T   T   T
  0.5199903139612303  0.0407486324352746  0.4217030704774842   F   F   F
  0.2230945721612159  0.0353387060675061  0.3932050219465495   F   F   F
  0.2163736907482345  0.2930353288766483  0.3192303272980936   F   F   F
  0.1575010503616241  0.3849901008808416  0.2789829167401123   F   F   F
  0.3415468765692253  0.2107695764228765  0.3307727584112428   F   F   F
  0.2227158616647102  0.1009427968968666  0.3227384335196248   F   F   F
  0.5119114749720104  0.8790704422552418  0.5469137686567380   T   T   T
  0.3825282480096598  0.2992391793513263  0.6473960208364432   T   T   T
  0.2449108095668978  0.1482427362686218  0.5978846269288546   T   T   T
  0.3153809713091036  0.5423203354474069  0.4424346656312608   F   F   F
  0.4089561837294582  0.4939187295607681  0.4056905975982730   F   F   F
  0.3984995032241372  0.8482974785238113  0.3887867966224334   F   F   F
  0.2442023571188656  0.7106139496515027  0.2943268807443218   F   F   F
  0.3117413815567005  0.4736595844105480  0.3692576443915385   F   F   F
  0.4054742948844066  0.6394635243379412  0.3388198885480591   F   F   F
  0.1393576205880507  0.5431575174532881  0.3519294596467617   F   F   F
  0.5932693451318087  0.7531709992981845  0.3523979868156601   F   F   F
  0.4690068301459220  0.9166113401117428  0.4438283837725479   F   F   F
  0.1216205040104517  0.3793015763224616  0.6117726963593739   T   T   T
  0.0731899326952852  0.7200363968244781  0.6458897337711278   T   T   T
  0.2450079330675145  0.4392022348216899  0.6821931518198148   T   T   T
  0.2472997704090414  0.8716569293264781  0.6694705150653921   T   T   T
  0.5829421085244983  0.5618305540211236  0.7062273364276919   T   T   T
  0.4850368194089670  0.5576730601446729  0.7834035084459152   T   T   T
  0.6013123305720504  0.4619771645490459  0.7701367022864749   T   T   T
  0.5293337903899553  0.4305349235509605  0.7638779316895471   T   T   T
  0.5784138789848290  0.4205202929376610  0.7132120989561960   T   T   T
  0.5647780776432132  0.6398570173333140  0.8011425019854507   T   T   T
  0.5625220467456522  0.6831227437098818  0.7416828859800657   T   T   T
  0.5049458171594029  0.6963929277876599  0.7845337226572878   T   T   T
  0.3689417337945073  0.7035389682943389  0.4390000177989322   F   F   F
  0.3468156499810249  0.5592177388212036  0.4203881275781143   F   F   F
  0.8606211334906800  0.6215209030058984  0.6966013841546681   T   T   T
  0.3492805862152872  0.0114889204991801  0.5304731328663710   T   T   T
  0.0333844979924332  0.9871817942224691  0.5287311677315691   T   T   T
  0.6363554822990451  0.1340524164338248  0.4893766723794641   F   F   F
  0.0686461464807948  0.1074492923483774  0.3951107345583225   F   F   F
  0.4518995424319527  0.1847461957030774  0.4205972814427668   F   F   F
  0.8058841492861291  0.2688340505656726  0.4831666074103040   F   F   F
  0.9736820283142201  0.2370129127729687  0.5985555909546263   T   T   T
  0.2747652928840907  0.3543567418839473  0.4485122250900346   F   F   F
  0.5563541661963498  0.8302751620519331  0.4417510122690658   F   F   F
  0.3922280280148516  0.0242924400973193  0.6197903069489634   T   T   T
  0.1775172398589788  0.4051523202028378  0.4052731245300478   F   F   F
  0.8659646780269022  0.7393175351739180  0.6373521114962948   T   T   T
  0.8656960102276017  0.0223608029513613  0.4670384592975196   F   F   F
  0.3010471365896024  0.8161207057481050  0.4579252567998537   F   F   F
  0.4216109456219570  0.3164360878886967  0.3795963030273342   F   F   F
  0.8107231576966948  0.5205197300020619  0.5199567109353552   T   T   T
  0.9831949785767811  0.1269448136271616  0.5211448545401951   T   T   T
  0.5264384365311912  0.5019130256745975  0.6266650695200184   T   T   T
  0.0345364061182565  0.9751316325257804  0.4294052572495062   F   F   F
  0.9630365419446250  0.3583791788177777  0.3512576249606170   F   F   F
  0.0696266904488567  0.3912896364040606  0.3763717815531962   F   F   F
  0.2082956575310035  0.7838281650694796  0.3953601014000157   F   F   F
  0.0389012629134911  0.4742857864535068  0.4991087535393461   F   F   F
  0.2384339329091451  0.3413048589858083  0.5879960274127682   T   T   T
  0.3968307352939765  0.2492922816350295  0.6441054204939575   T   T   T
  0.4600287521468953  0.6016350443058126  0.6020219474436184   T   T   T
  0.9094430429760146  0.8037641455330146  0.5574549360296485   T   T   T
  0.8691272713299156  0.1632272132326307  0.4422783307318099   F   F   F
  0.5725767945756743  0.7225157237400168  0.3761317316733468   F   F   F
  0.1424265590957958  0.2143093696871006  0.3759722435750490   F   F   F
  0.3512434417885803  0.8195138108963630  0.6070226971576164   T   T   T
  0.9109960497951874  0.9002314422992441  0.4831796236075121   F   F   F
  0.0613380104910135  0.5920555767069899  0.4422534820284341   F   F   F
  0.7083390277084121  0.6103504227204866  0.4199576800001736   F   F   F
  0.0754872572765848  0.8719906757681031  0.4829941554854784   F   F   F
  0.7004647711973604  0.8827395858851332  0.4326352913293690   F   F   F
  0.7306517243893819  0.1031623840965454  0.5428791142000466   T   T   T
  0.9189751309120577  0.3572308263219704  0.6319900999368405   T   T   T
  0.7352945926647203  0.9077250657098765  0.6129659371528846   T   T   T
  0.6251219543867705  0.5825778729354099  0.4863787091564404   F   F   F
  0.5565732987385132  0.6848869112572515  0.4672494240254110   F   F   F
  0.4263211263367856  0.2992355793122806  0.5546976365717734   T   T   T
  0.9782900938336425  0.7834275044788441  0.4767956400891720   F   F   F
  0.6537737043673131  0.6489899469188993  0.6338457831640545   T   T   T
  0.3965415461467727  0.8019193365626169  0.5150869703479465   T   T   T
  0.6026900685395375  0.5728493226453395  0.3856709925442061   F   F   F
  0.7188006591048675  0.6865141416878936  0.5572404617136817   T   T   T
  0.1462304580774649  0.4210640048004001  0.6192491325092633   T   T   T
  0.0657535343585438  0.6030821606879333  0.5422007241767159   T   T   T
  0.8185140971184045  0.9395604066745374  0.5363950977472254   T   T   T
  0.8282155306614527  0.4105690135976232  0.4519033357708793   F   F   F
  0.5281506051275247  0.3487000773115040  0.5299067388649488   T   T   T
  0.7362984495790698  0.5542941680739067  0.5950257320192707   T   T   T
  0.5574339360995921  0.2276149760508730  0.3949085375269945   F   F   F
  0.8059640829904495  0.3115964413438661  0.3832928600033014   F   F   F
  0.2374462167629616  0.0084346213459412  0.5079195554207132   F   F   F
  0.6926320119738612  0.8318170957580472  0.5412613520972114   T   T   T
  0.9235578392496011  0.0042679131289760  0.5531274949098522   T   T   T
  0.5257372223541736  0.3729649904546406  0.3985559351687087   F   F   F
  0.4683504747467347  0.0429798004474771  0.5465121456325137   T   T   T
  0.8380712088855706  0.1498057555094403  0.5397498035166339   T   T   T
  0.5379032530424510  0.1716013601855622  0.4862370923690094   F   F   F
  0.3501934425152129  0.2417926033060667  0.4396363938456389   F   F   F
  0.0117603228167908  0.0175977707736195  0.3352437574830063   F   F   F
  0.4545618934680020  0.6627766769261765  0.6830872725374652   T   T   T
  0.6549652215522386  0.9805813751821333  0.3792282539811964   F   F   F
  0.0762933429470323  0.7412101282781052  0.4358810225764742   F   F   F
  0.4556934502031755  0.4558795494561884  0.5535351668574496   T   T   T
  0.7192194366265099  0.7556047222177824  0.3795829994963285   F   F   F
  0.4505704276325607  0.7531493646819576  0.5956013156125955   T   T   T
  0.7525510591055777  0.7645084462755065  0.4762954835743187   F   F   F
  0.7796548297822813  0.1757639670693262  0.6206477395957558   T   T   T
  0.9932746155468877  0.3631973442958980  0.4484029789284989   F   F   F
  0.5289506327365819  0.5688839667627532  0.5306048690135374   T   T   T
  0.8167775852155614  0.5542456053436879  0.4234422052650615   F   F   F
  0.2366880715259167  0.2000397684808389  0.6048708335737243   T   T   T
  0.2035333057163413  0.8858851869526987  0.4705336293601903   F   F   F
  0.2402230616850776  0.6141251160062451  0.5224267649221770   T   T   T
  0.0610363684399833  0.6806108638846019  0.6239668441855455   T   T   T
  0.0460740722049948  0.6575305630493702  0.3541786312221902   F   F   F
  0.8012438804410257  0.0335433633505157  0.6057807156672806   T   T   T
  0.5379909097114037  0.0828813626538434  0.4045027517534763   F   F   F
  0.6041705980359711  0.3689793272928266  0.6043990655274163   T   T   T
  0.8615461075340960  0.0592647203656895  0.3692063291070653   F   F   F
  0.0949113079819810  0.2042067062767075  0.4670823258906296   F   F   F
  0.1715491708313321  0.2585225138689562  0.5307054256949346   T   T   T
  0.6409886548841044  0.7596225911080339  0.4548155821771758   F   F   F
  0.4367877834064799  0.4649523517738814  0.3864132536704119   F   F   F
  0.5740662807524692  0.1122649971719442  0.5706475320510086   T   T   T
  0.1514377462021059  0.6485918943738085  0.3889583608347777   F   F   F
  0.2677397900769023  0.6575214022950391  0.3923062966030031   F   F   F
  0.4402584600309112  0.3773820531868708  0.4703244327181508   F   F   F
  0.2380096658898907  0.2136950002304303  0.4299011866524154   F   F   F
  0.0728022385291487  0.2039957299851404  0.5621156299734997   T   T   T
  0.8442671423592031  0.5998256518122925  0.5994503123164826   T   T   T
  0.6211794284267498  0.3351237474733182  0.4109054511829981   F   F   F
  0.6026669933739228  0.9467105367042734  0.4672234595428861   F   F   F
  0.0313853912181870  0.2504736999951049  0.3889918752683101   F   F   F
  0.6091049108823919  0.2495755479846867  0.5478703962611939   T   T   T
  0.1327997263300347  0.9935385154496430  0.4794870772378772   F   F   F
  0.0798168495149507  0.3350816712063494  0.5122891172545970   T   T   T
  0.3726555483557798  0.1573420534529969  0.5691882972122495   T   T   T
  0.0659680242029400  0.7513843702889740  0.5356483263841139   T   T   T
  0.6664883802866157  0.4705687484731200  0.4300115561107631   F   F   F
  0.7988071494774993  0.7842735441106260  0.5645395331033263   T   T   T
  0.7038385586134339  0.0123923042067915  0.4701845621740759   F   F   F
  0.5971129800362359  0.6886644880395247  0.5541200462889752   T   T   T
  0.7228402998664549  0.3488685249886743  0.4516681052539582   F   F   F
  0.9770590575542099  0.3697940167157539  0.5470475079381453   T   T   T
  0.1578606739915932  0.6845674614342251  0.5701513878518577   T   T   T
  0.6333338448107071  0.3819669501739185  0.5078007023299378   F   F   F
  0.8195430287887668  0.4521327937155678  0.6056967565933358   T   T   T
  0.9585781980894978  0.0824269152768693  0.4169530046787955   F   F   F
  0.2822895629900844  0.2509806321343439  0.5186425507178307   T   T   T
  0.2492575497532457  0.4982167600544329  0.4610556955705079   F   F   F
  0.2729928327172355  0.9035908617088619  0.5678708553624259   T   T   T
  0.2036681493187373  0.7407570403557955  0.4868887178860462   F   F   F
  0.1471234534495878  0.5312537475793775  0.4925449251270066   F   F   F
  0.2249320293772463  0.4785135578923647  0.5568354790583202   T   T   T
  0.9114169782859136  0.5079284690934998  0.4737188145108959   F   F   F
  0.8697881761182842  0.7597439814306668  0.4641535209108483   F   F   F
  0.7381202078118392  0.1480184894441194  0.4452296472671975   F   F   F
  0.2221834364607460  0.9849650607116089  0.4079468165165281   F   F   F
  0.2520372108183175  0.4581578346720938  0.6490645411866067   T   T   T
  0.6302800031240087  0.9382016785358821  0.5938696142798885   T   T   T
  0.4102232653459481  0.8442462629143677  0.4234373851432949   F   F   F
  0.9177713527308597  0.2512221645748909  0.5082451459005242   F   F   F
  0.1325470584190001  0.4987199847418253  0.3322726622007863   F   F   F
  0.1551476808853849  0.3587071261215939  0.3105604161752922   F   F   F
  0.3730051452693530  0.1860909141715439  0.3479534200993726   F   F   F
  0.0345780399790512  0.3479797155343223  0.6332100599972161   T   T   T
  0.5726892607782261  0.3120520622941427  0.3200996781806822   F   F   F
  0.2459549881674733  0.8265613798781435  0.6500874154437184   T   T   T
  0.2073742988973706  0.7035889206128445  0.3103690611938177   F   F   F
  0.2753744117793318  0.4473751699592938  0.3673758273212613   F   F   F
  0.3653508124869589  0.6527705030914746  0.3422207943191111   F   F   F
  0.2263808502218509  0.1113646949552844  0.3581188824802055   F   F   F
  0.2412033350308818  0.2512620985375591  0.3293429668079639   F   F   F
  0.5012729261715734  0.9474854927868890  0.4548416832162587   F   F   F
  0.5506984610148241  0.8821087839856019  0.5342466173865731   T   T   T
  0.5461991123710539  0.7058152038081680  0.6366656576570269   T   T   T
  0.4781267625649220  0.1746201165752554  0.5965645862854474   T   T   T
  0.2623235571887591  0.7489055994948322  0.5691627235165468   T   T   T
  0.4442794168590909  0.8989551195670865  0.5828641175564390   T   T   T
  0.7650418615405548  0.6717247295817783  0.6495769422927521   T   T   T
  0.8449744714869403  0.8868187036268257  0.6227545336572563   T   T   T
  0.6411690623207505  0.7947261608664843  0.6211349161411455   T   T   T
  0.0077092001993636  0.0883221995833296  0.6030794635091593   T   T   T
  0.2851109892582918  0.0553315578763040  0.5937971762805720   T   T   T
  0.5042727117436427  0.0247201271628192  0.6286470249898347   T   T   T
  0.4267311165661236  0.4906976108731709  0.7028288404210284   T   T   T
  0.0832252792583148  0.6616041716390058  0.4064130837160320   F   F   F
  0.4094038523982969  0.8188133272787058  0.5743348786622221   T   T   T
  0.8417638189676637  0.4966369860369753  0.4678389696388976   F   F   F
  0.0170894936830805  0.0456659097568490  0.3936113541928137   F   F   F
  0.0147002066459194  0.3393741445575031  0.3910814136036507   F   F   F
  0.0090498310817083  0.1697577695580869  0.5722853019399512   T   T   T
  0.6101045128674798  0.7133802871696234  0.6115177960915955   T   T   T
  0.2140216468156445  0.5312592042051819  0.5096580759924105   T   T   T
  0.9150621278077509  0.8107448082659801  0.4962545438487922   F   F   F
  0.5205785424995497  0.1656394969314334  0.4259865881079392   F   F   F
  0.4185885273138157  0.2225376950963922  0.5891165376923473   T   T   T
  0.0834525281692322  0.1943559478997372  0.4069808717903314   F   F   F
  0.7018979345349692  0.1000301253312159  0.4873230277072054   F   F   F
  0.6650593546526977  0.9532213343124241  0.4374764361266443   F   F   F
  0.6500987440092842  0.5592109279009350  0.4301508871204760   F   F   F
  0.1984606475676856  0.9676661022331814  0.4639906909803457   F   F   F
  0.2140536140540014  0.4225259289102796  0.6035851574581660   T   T   T
  0.6738966016879235  0.8690036462906043  0.5946064858945967   T   T   T
  0.2165332233997372  0.6966561441968951  0.5385437580221958   T   T   T
  0.3687891183983183  0.7903116041479024  0.4592092972079129   F   F   F
  0.7975725573679916  0.9434904784993378  0.5955520271998509   T   T   T
  0.8795572094430772  0.9672747655090862  0.5119448193292752   T   T   T
  0.5763611181316842  0.6303950706102530  0.5119481509172567   T   T   T
  0.5898535129246009  0.1702392115063472  0.5253010187050956   T   T   T
  0.8581223412116756  0.2072971031878126  0.4951759473310489   F   F   F
  0.8350238353265121  0.6588379498293937  0.6458392996074572   T   T   T
  0.1337385207956885  0.4155027744683508  0.3568722791356791   F   F   F
  0.7906552883383853  0.3351231164788686  0.4418726542293072   F   F   F
  0.3991760968159852  0.2326787147761138  0.3960031981861079   F   F   F
  0.8557225427657289  0.8050578829997546  0.5964723475503673   T   T   T
  0.2831814185634889  0.9887092166236706  0.5492950846005946   T   T   T
  0.0230747323006639  0.3856313854262154  0.5022455100715746   F   F   F
  0.5745593848382811  0.7506739518051617  0.4355643604055430   F   F   F
  0.2302409542512009  0.8077843674007141  0.4519695445397645   F   F   F
  0.5941218159316044  0.3379825530179931  0.5480909056353911   T   T   T
  0.9752676701632896  0.3278160522198834  0.6024464576396698   T   T   T
  0.8889063590695159  0.0805928697263880  0.4242001869335610   F   F   F
  0.1047105267219138  0.2502455161116796  0.5178615076223411   T   T   T
  0.0481456608991806  0.7882209642648945  0.4826301941714348   F   F   F
  0.2320233982745043  0.2611977441870028  0.5609842514585944   T   T   T
  0.5614078070968063  0.3129691405622808  0.3812261074005363   F   F   F
  0.4776236676565507  0.6866833845807414  0.6285605999640752   T   T   T
  0.2818565651574659  0.8250700941662712  0.5978836984153644   T   T   T
  0.2085008253050660  0.6985837153311536  0.3717945352858223   F   F   F
  0.7400280537235563  0.7659358951571912  0.5358531524272162   T   T   T
  0.9863068305453254  0.0451257419621237  0.5505484275737187   T   T   T
  0.7031045578374417  0.7920020239896672  0.4342603982179796   F   F   F
  0.7883451556424842  0.1141406056001150  0.5766489912298438   T   T   T
  0.4563138980148480  0.3836354658542263  0.4092878915485585   F   F   F
  0.4503972034040081  0.9884601832235562  0.5949533882591800   T   T   T
  0.5087313402299006  0.0940383194573540  0.5860887047469231   T   T   T
  0.2442471516899545  0.4255901947084979  0.4209471039025985   F   F   F
  0.6585253437214931  0.3851859816758179  0.4503479098948588   F   F   F
  0.4612771549205339  0.3700593546467661  0.5284218791687039   T   T   T
  0.3372993678552234  0.6451264125930436  0.3990830096962270   F   F   F
  0.8028000876029382  0.5317994180002865  0.5795797978340781   T   T   T
  0.0692097893945274  0.9540430265313375  0.4805055068825652   F   F   F
  0.2119075788647606  0.1996381921392896  0.3735965933534686   F   F   F
  0.0782328566383796  0.5491688658889444  0.4946876202126234   F   F   F
  0.5575701889662170  0.9075239694569888  0.4747302534090920   F   F   F
  0.7179558309011429  0.6396178807069548  0.6096594676728613   T   T   T
  0.2866421242385897  0.2652856093763347  0.4591107728955208   F   F   F
  0.0876510551741617  0.6801973665164214  0.5677186188119179   T   T   T
  0.3541051907023181  0.0716287702516762  0.5786023580289372   T   T   T
  0.4940196658708830  0.5268258290339248  0.5751662367475256   T   T   T
  0.4757698985529404  0.5533951605225962  0.6814755084106031   T   T   T

  0.00000000E+00  0.00000000E+00  0.00000000E+00
  0.00000000E+00  0.00000000E+00  0.00000000E+00
  0.00000000E+00  0.00000000E+00  0.00000000E+00
  0.00000000E+00  0.00000000E+00  0.00000000E+00
  0.00000000E+00  0.00000000E+00  0.00000000E+00
  0.00000000E+00  0.00000000E+00  0.00000000E+00
  0.00000000E+00  0.00000000E+00  0.00000000E+00
  0.00000000E+00  0.00000000E+00  0.00000000E+00
  0.00000000E+00  0.00000000E+00  0.00000000E+00
  0.00000000E+00  0.00000000E+00  0.00000000E+00
  0.00000000E+00  0.00000000E+00  0.00000000E+00
  0.00000000E+00  0.00000000E+00  0.00000000E+00
  0.00000000E+00  0.00000000E+00  0.00000000E+00
  0.00000000E+00  0.00000000E+00  0.00000000E+00
  0.00000000E+00  0.00000000E+00  0.00000000E+00
  0.00000000E+00  0.00000000E+00  0.00000000E+00
  0.00000000E+00  0.00000000E+00  0.00000000E+00
  0.00000000E+00  0.00000000E+00  0.00000000E+00
  0.00000000E+00  0.00000000E+00  0.00000000E+00
  0.00000000E+00  0.00000000E+00  0.00000000E+00
  0.00000000E+00  0.00000000E+00  0.00000000E+00
  0.00000000E+00  0.00000000E+00  0.00000000E+00
  0.00000000E+00  0.00000000E+00  0.00000000E+00
  0.00000000E+00  0.00000000E+00  0.00000000E+00
  0.00000000E+00  0.00000000E+00  0.00000000E+00
  0.00000000E+00  0.00000000E+00  0.00000000E+00
  0.00000000E+00  0.00000000E+00  0.00000000E+00
  0.00000000E+00  0.00000000E+00  0.00000000E+00
  0.00000000E+00  0.00000000E+00  0.00000000E+00
  0.00000000E+00  0.00000000E+00  0.00000000E+00
  0.00000000E+00  0.00000000E+00  0.00000000E+00
  0.00000000E+00  0.00000000E+00  0.00000000E+00
  0.00000000E+00  0.00000000E+00  0.00000000E+00
  0.00000000E+00  0.00000000E+00  0.00000000E+00
  0.00000000E+00  0.00000000E+00  0.00000000E+00
  0.00000000E+00  0.00000000E+00  0.00000000E+00
  0.00000000E+00  0.00000000E+00  0.00000000E+00
  0.00000000E+00  0.00000000E+00  0.00000000E+00
  0.00000000E+00  0.00000000E+00  0.00000000E+00
  0.00000000E+00  0.00000000E+00  0.00000000E+00
  0.00000000E+00  0.00000000E+00  0.00000000E+00
  0.00000000E+00  0.00000000E+00  0.00000000E+00
  0.00000000E+00  0.00000000E+00  0.00000000E+00
  0.00000000E+00  0.00000000E+00  0.00000000E+00
  0.00000000E+00  0.00000000E+00  0.00000000E+00
  0.00000000E+00  0.00000000E+00  0.00000000E+00
  0.00000000E+00  0.00000000E+00  0.00000000E+00
  0.00000000E+00  0.00000000E+00  0.00000000E+00
  0.00000000E+00  0.00000000E+00  0.00000000E+00
  0.00000000E+00  0.00000000E+00  0.00000000E+00
  0.00000000E+00  0.00000000E+00  0.00000000E+00
  0.00000000E+00  0.00000000E+00  0.00000000E+00
  0.00000000E+00  0.00000000E+00  0.00000000E+00
  0.00000000E+00  0.00000000E+00  0.00000000E+00
  0.00000000E+00  0.00000000E+00  0.00000000E+00
  0.00000000E+00  0.00000000E+00  0.00000000E+00
  0.00000000E+00  0.00000000E+00  0.00000000E+00
  0.00000000E+00  0.00000000E+00  0.00000000E+00
  0.00000000E+00  0.00000000E+00  0.00000000E+00
  0.00000000E+00  0.00000000E+00  0.00000000E+00
  0.00000000E+00  0.00000000E+00  0.00000000E+00
  0.00000000E+00  0.00000000E+00  0.00000000E+00
  0.00000000E+00  0.00000000E+00  0.00000000E+00
  0.00000000E+00  0.00000000E+00  0.00000000E+00
  0.00000000E+00  0.00000000E+00  0.00000000E+00
  0.00000000E+00  0.00000000E+00  0.00000000E+00
  0.00000000E+00  0.00000000E+00  0.00000000E+00
  0.00000000E+00  0.00000000E+00  0.00000000E+00
  0.00000000E+00  0.00000000E+00  0.00000000E+00
  0.00000000E+00  0.00000000E+00  0.00000000E+00
  0.00000000E+00  0.00000000E+00  0.00000000E+00
  0.00000000E+00  0.00000000E+00  0.00000000E+00
  0.00000000E+00  0.00000000E+00  0.00000000E+00
  0.00000000E+00  0.00000000E+00  0.00000000E+00
  0.00000000E+00  0.00000000E+00  0.00000000E+00
  0.00000000E+00  0.00000000E+00  0.00000000E+00
  0.00000000E+00  0.00000000E+00  0.00000000E+00
  0.00000000E+00  0.00000000E+00  0.00000000E+00
  0.00000000E+00  0.00000000E+00  0.00000000E+00
  0.00000000E+00  0.00000000E+00  0.00000000E+00
  0.00000000E+00  0.00000000E+00  0.00000000E+00
  0.00000000E+00  0.00000000E+00  0.00000000E+00
  0.00000000E+00  0.00000000E+00  0.00000000E+00
  0.00000000E+00  0.00000000E+00  0.00000000E+00
  0.00000000E+00  0.00000000E+00  0.00000000E+00
  0.00000000E+00  0.00000000E+00  0.00000000E+00
  0.00000000E+00  0.00000000E+00  0.00000000E+00
  0.00000000E+00  0.00000000E+00  0.00000000E+00
  0.00000000E+00  0.00000000E+00  0.00000000E+00
  0.00000000E+00  0.00000000E+00  0.00000000E+00
  0.00000000E+00  0.00000000E+00  0.00000000E+00
  0.00000000E+00  0.00000000E+00  0.00000000E+00
  0.00000000E+00  0.00000000E+00  0.00000000E+00
  0.00000000E+00  0.00000000E+00  0.00000000E+00
  0.00000000E+00  0.00000000E+00  0.00000000E+00
  0.00000000E+00  0.00000000E+00  0.00000000E+00
  0.00000000E+00  0.00000000E+00  0.00000000E+00
  0.00000000E+00  0.00000000E+00  0.00000000E+00
  0.00000000E+00  0.00000000E+00  0.00000000E+00
  0.00000000E+00  0.00000000E+00  0.00000000E+00
  0.00000000E+00  0.00000000E+00  0.00000000E+00
  0.00000000E+00  0.00000000E+00  0.00000000E+00
  0.00000000E+00  0.00000000E+00  0.00000000E+00
  0.00000000E+00  0.00000000E+00  0.00000000E+00
  0.00000000E+00  0.00000000E+00  0.00000000E+00
  0.00000000E+00  0.00000000E+00  0.00000000E+00
  0.00000000E+00  0.00000000E+00  0.00000000E+00
  0.00000000E+00  0.00000000E+00  0.00000000E+00
  0.00000000E+00  0.00000000E+00  0.00000000E+00
  0.00000000E+00  0.00000000E+00  0.00000000E+00
  0.00000000E+00  0.00000000E+00  0.00000000E+00
  0.00000000E+00  0.00000000E+00  0.00000000E+00
  0.00000000E+00  0.00000000E+00  0.00000000E+00
  0.00000000E+00  0.00000000E+00  0.00000000E+00
  0.00000000E+00  0.00000000E+00  0.00000000E+00
  0.00000000E+00  0.00000000E+00  0.00000000E+00
  0.00000000E+00  0.00000000E+00  0.00000000E+00
  0.00000000E+00  0.00000000E+00  0.00000000E+00
  0.00000000E+00  0.00000000E+00  0.00000000E+00
  0.00000000E+00  0.00000000E+00  0.00000000E+00
  0.00000000E+00  0.00000000E+00  0.00000000E+00
  0.00000000E+00  0.00000000E+00  0.00000000E+00
  0.00000000E+00  0.00000000E+00  0.00000000E+00
  0.00000000E+00  0.00000000E+00  0.00000000E+00
  0.00000000E+00  0.00000000E+00  0.00000000E+00
  0.00000000E+00  0.00000000E+00  0.00000000E+00
  0.00000000E+00  0.00000000E+00  0.00000000E+00
  0.00000000E+00  0.00000000E+00  0.00000000E+00
  0.00000000E+00  0.00000000E+00  0.00000000E+00
  0.00000000E+00  0.00000000E+00  0.00000000E+00
  0.00000000E+00  0.00000000E+00  0.00000000E+00
  0.00000000E+00  0.00000000E+00  0.00000000E+00
  0.00000000E+00  0.00000000E+00  0.00000000E+00
  0.00000000E+00  0.00000000E+00  0.00000000E+00
  0.00000000E+00  0.00000000E+00  0.00000000E+00
  0.00000000E+00  0.00000000E+00  0.00000000E+00
  0.00000000E+00  0.00000000E+00  0.00000000E+00
  0.00000000E+00  0.00000000E+00  0.00000000E+00
  0.00000000E+00  0.00000000E+00  0.00000000E+00
  0.00000000E+00  0.00000000E+00  0.00000000E+00
  0.00000000E+00  0.00000000E+00  0.00000000E+00
  0.00000000E+00  0.00000000E+00  0.00000000E+00
  0.00000000E+00  0.00000000E+00  0.00000000E+00
  0.00000000E+00  0.00000000E+00  0.00000000E+00
  0.00000000E+00  0.00000000E+00  0.00000000E+00
  0.00000000E+00  0.00000000E+00  0.00000000E+00
  0.00000000E+00  0.00000000E+00  0.00000000E+00
  0.00000000E+00  0.00000000E+00  0.00000000E+00
  0.00000000E+00  0.00000000E+00  0.00000000E+00
  0.00000000E+00  0.00000000E+00  0.00000000E+00
  0.00000000E+00  0.00000000E+00  0.00000000E+00
  0.00000000E+00  0.00000000E+00  0.00000000E+00
  0.00000000E+00  0.00000000E+00  0.00000000E+00
  0.00000000E+00  0.00000000E+00  0.00000000E+00
  0.00000000E+00  0.00000000E+00  0.00000000E+00
  0.00000000E+00  0.00000000E+00  0.00000000E+00
  0.00000000E+00  0.00000000E+00  0.00000000E+00
  0.00000000E+00  0.00000000E+00  0.00000000E+00
  0.00000000E+00  0.00000000E+00  0.00000000E+00
  0.00000000E+00  0.00000000E+00  0.00000000E+00
  0.00000000E+00  0.00000000E+00  0.00000000E+00
  0.00000000E+00  0.00000000E+00  0.00000000E+00
  0.00000000E+00  0.00000000E+00  0.00000000E+00
  0.00000000E+00  0.00000000E+00  0.00000000E+00
  0.00000000E+00  0.00000000E+00  0.00000000E+00
  0.00000000E+00  0.00000000E+00  0.00000000E+00
  0.00000000E+00  0.00000000E+00  0.00000000E+00
  0.00000000E+00  0.00000000E+00  0.00000000E+00
  0.00000000E+00  0.00000000E+00  0.00000000E+00
  0.00000000E+00  0.00000000E+00  0.00000000E+00
  0.00000000E+00  0.00000000E+00  0.00000000E+00
  0.00000000E+00  0.00000000E+00  0.00000000E+00
  0.00000000E+00  0.00000000E+00  0.00000000E+00
  0.00000000E+00  0.00000000E+00  0.00000000E+00
  0.00000000E+00  0.00000000E+00  0.00000000E+00
  0.00000000E+00  0.00000000E+00  0.00000000E+00
  0.00000000E+00  0.00000000E+00  0.00000000E+00
  0.00000000E+00  0.00000000E+00  0.00000000E+00
  0.00000000E+00  0.00000000E+00  0.00000000E+00
  0.00000000E+00  0.00000000E+00  0.00000000E+00
  0.00000000E+00  0.00000000E+00  0.00000000E+00
  0.00000000E+00  0.00000000E+00  0.00000000E+00
  0.00000000E+00  0.00000000E+00  0.00000000E+00
  0.00000000E+00  0.00000000E+00  0.00000000E+00
  0.00000000E+00  0.00000000E+00  0.00000000E+00
  0.00000000E+00  0.00000000E+00  0.00000000E+00
  0.00000000E+00  0.00000000E+00  0.00000000E+00
  0.00000000E+00  0.00000000E+00  0.00000000E+00
  0.00000000E+00  0.00000000E+00  0.00000000E+00
  0.00000000E+00  0.00000000E+00  0.00000000E+00
  0.00000000E+00  0.00000000E+00  0.00000000E+00
  0.00000000E+00  0.00000000E+00  0.00000000E+00
  0.00000000E+00  0.00000000E+00  0.00000000E+00