 C  H  O Si  W                          
   1.0000000000000000     
    23.4112945954000011    0.0000000000000000    0.0000000000000000
     0.0000000000000000   18.1212369513999967    0.0000000000000000
     0.0000000000000000    0.0000000000000000   26.8833665072999999
   C    H    O    Si   W 
     5    54   154    65     1
Selective dynamics
Direct
  0.5171381630402578  0.4832900293892592  0.7477094787910801   T   T   T
  0.4217353548753451  0.5189438770129868  0.7740473405488970   T   T   T
  0.3816144058945383  0.5067051006446519  0.7355680529497732   T   T   T
  0.4363531461709442  0.5960589166125416  0.7915398681273871   T   T   T
  0.3395262716021961  0.4428016897153242  0.7373311612883953   T   T   T
  0.7609023413039679  0.1026630594295099  0.6511207553555920   F   F   F
  0.9264276758305172  0.2786689626896504  0.3563349293400009   F   F   F
  0.7933396966457948  0.2072788970904043  0.3734565163880745   F   F   F
  0.9745391126846457  0.9436086004040121  0.3253027906056829   F   F   F
  0.6257326647317640  0.9634728498404783  0.3752311999972449   F   F   F
  0.8205383985802470  0.9950066634445136  0.3689926296547128   F   F   F
  0.7499930738025071  0.1411787556975952  0.4580381926778543   F   F   F
  0.9158491046137627  0.2494778567179736  0.5072103991104981   F   F   F
  0.5834928632346532  0.3042635460806125  0.3059271726651787   F   F   F
  0.8894644833603564  0.3339970604419804  0.6150692072359050   F   F   F
  0.5895703251611195  0.3602173152452721  0.6141565785837955   F   F   F
  0.5932995244815373  0.8707511624662629  0.5782124664579342   F   F   F
  0.0249012010501559  0.3357854651005781  0.6575493554532272   F   F   F
  0.9352705076293475  0.4195142256010698  0.4541014552468710   F   F   F
  0.7461383787264921  0.5303119922813835  0.4224881911837883   F   F   F
  0.7971899850394024  0.3821789239912547  0.6344399106770808   F   F   F
  0.5911020173621253  0.5686828265718304  0.3780347436188976   F   F   F
  0.7184337867332147  0.6459327856642645  0.3834605945055571   F   F   F
  0.8411529141822527  0.5424265959195793  0.4195961671555111   F   F   F
  0.0047645486004839  0.6037981490802551  0.3577783004107076   F   F   F
  0.8283586992797254  0.7123566732624553  0.4679422553080954   F   F   F
  0.8761998865618565  0.5995243453686498  0.7214835105477277   F   F   F
  0.5199903139142066  0.9855647614121708  0.4217030704774842   F   F   F
  0.2230945721141921  0.9801548350444023  0.3932050219465495   F   F   F
  0.2163736907012108  0.2378514578535444  0.3192303272980936   F   F   F
  0.1575010503146004  0.3298062298577378  0.2789829167401123   F   F   F
  0.3415468765222016  0.1555857053997727  0.3307727584112428   F   F   F
  0.2227158616176865  0.0457589258737627  0.3227384335196248   F   F   F
  0.5110490257453861  0.8260831400079098  0.5467201120894956   F   F   F
  0.4061196054442178  0.2479556105884413  0.6553079080103430   F   F   F
  0.2434367921954887  0.0938063078038809  0.5989571917997978   F   F   F
  0.3153809712620799  0.4871364644243030  0.4424346656312608   F   F   F
  0.4089561836824345  0.4387348585376714  0.4056905975982730   F   F   F
  0.3984995031771135  0.7931136075007288  0.3887867966224334   F   F   F
  0.2442023570718419  0.6554300786283989  0.2943268807443218   F   F   F
  0.3117413815096768  0.4184757133874513  0.3692576443915385   F   F   F
  0.4054742948373828  0.5842796533148373  0.3388198885480591   F   F   F
  0.1393576205410270  0.4879736464301843  0.3519294596467617   F   F   F
  0.5932693450847850  0.6979871282750807  0.3523979868156601   F   F   F
  0.4690068300988983  0.8614274690886603  0.4438283837725479   F   F   F
  0.1124343166444532  0.3292637728095613  0.6123599723000197   F   F   F
  0.0713456367887844  0.6664898056547628  0.6450823235294649   F   F   F
  0.2449619459265051  0.3565823049771808  0.6755993983952706   F   F   F
  0.2451187024697958  0.8172556769833932  0.6684097881527080   F   F   F
  0.5270391542272961  0.4377317137703329  0.7729462594672043   T   T   T
  0.5405958433186129  0.5347204271532675  0.7547487146380192   T   T   T
  0.4273188530644205  0.4744516414880877  0.8010997774196937   T   T   T
  0.3665529843843416  0.5564216367461796  0.7165332950747043   T   T   T
  0.4777565887154935  0.5991381910514875  0.8105600384952751   T   T   T
  0.4356589078172064  0.6351275973237946  0.7603534398222038   T   T   T
  0.4030110715914077  0.6127501034805434  0.8183510955094917   T   T   T
  0.3250205031280444  0.4276452963927895  0.6999008497628125   T   T   T
  0.3584163369764184  0.3940762281120342  0.7551554235616038   T   T   T
  0.3016647439327258  0.4602482036403757  0.7588022991798553   T   T   T
  0.3689417337474836  0.6483550972712351  0.4390000177989322   F   F   F
  0.3468156499340012  0.5040338677980998  0.4203881275781143   F   F   F
  0.8606592712872896  0.5663169137399180  0.6966953871503208   F   F   F
  0.3482059414704821  0.9603573267289320  0.5318132514049267   F   F   F
  0.0331811360195360  0.9321228659237306  0.5285763295697734   F   F   F
  0.6363554822520214  0.0788685454107210  0.4893766723794641   F   F   F
  0.0686461464337711  0.0522654213252736  0.3951107345583225   F   F   F
  0.4518995423849290  0.1295623246799735  0.4205972814427668   F   F   F
  0.8058841492391053  0.2136501795425758  0.4831666074103040   F   F   F
  0.9731928184030636  0.1811295700372071  0.5987896592356066   F   F   F
  0.2747652928370670  0.2991728708608434  0.4485122250900346   F   F   F
  0.5563541661493261  0.7750912910288292  0.4417510122690658   F   F   F
  0.3912840006494136  0.9719781509951133  0.6208681965022080   F   F   F
  0.1775172398119551  0.3499684491797339  0.4052731245300478   F   F   F
  0.8663427945682614  0.6841748250596495  0.6373722524372880   F   F   F
  0.8656960101805780  0.9671769319282575  0.4670384592975196   F   F   F
  0.3010471365425786  0.7609368347250012  0.4579252567998537   F   F   F
  0.4216109455749333  0.2612522168655929  0.3795963030273342   F   F   F
  0.8111585045754666  0.4654448507620046  0.5201419613450327   F   F   F
  0.9834375376190181  0.0723844633032442  0.5211429505665848   F   F   F
  0.5085894247879850  0.4662559336059005  0.6282586825241268   F   F   F
  0.0345364060712328  0.9199477615026765  0.4294052572495062   F   F   F
  0.9630365418976012  0.3031953077946739  0.3512576249606170   F   F   F
  0.0696266904018330  0.3361057653809567  0.3763717815531962   F   F   F
  0.2082956574839798  0.7286442940463758  0.3953601014000157   F   F   F
  0.0389012628664673  0.4191019154304101  0.4991087535393461   F   F   F
  0.2362648828682694  0.2864614411721433  0.5876543477455911   F   F   F
  0.3958480306651140  0.1981811402376010  0.6452424666127285   F   F   F
  0.4538321794795337  0.5646655573773671  0.5770399913774327   F   F   F
  0.9097341851356546  0.7490364812547696  0.5574715007700277   F   F   F
  0.8691272712828919  0.1080433422095268  0.4422783307318099   F   F   F
  0.5725767945286506  0.6673318527169130  0.3761317316733468   F   F   F
  0.1424265590487721  0.1591254986639967  0.3759722435750490   F   F   F
  0.3503331292877974  0.7660185231200245  0.6067480899502655   F   F   F
  0.9109960497481637  0.8450475712761616  0.4831796236075121   F   F   F
  0.0613380104439898  0.5368717056838861  0.4422534820284341   F   F   F
  0.7083390276613883  0.5551665516973827  0.4199576800001736   F   F   F
  0.0754872572295611  0.8168068047450205  0.4829941554854784   F   F   F
  0.7004647711503367  0.8275557148620507  0.4326352913293690   F   F   F
  0.7302858625243971  0.0492435852850690  0.5429510464038003   F   F   F
  0.9161113662370539  0.2996848523438587  0.6307014853065382   F   F   F
  0.7346973166322712  0.8516620182983985  0.6130654716390609   F   F   F
  0.6251219543397468  0.5273940019123060  0.4863787091564404   F   F   F
  0.5565732986914895  0.6297030402341477  0.4672494240254110   F   F   F
  0.4264326854729461  0.2477085342230723  0.5562651663823104   F   F   F
  0.9782900937866188  0.7282436334557403  0.4767956400891720   F   F   F
  0.6537833457474491  0.5941025379387668  0.6335092154360211   F   F   F
  0.3966599611519186  0.7466566207156760  0.5153729600090884   F   F   F
  0.6026900684925138  0.5176654516222357  0.3856709925442061   F   F   F
  0.7198516883677613  0.6304151876747284  0.5569394864067050   F   F   F
  0.1367371692443768  0.3668293877118174  0.5974522176306891   F   F   F
  0.0661419926388902  0.5486124670409964  0.5419076469217359   F   F   F
  0.8187027478562001  0.8840110882934695  0.5364829128014108   F   F   F
  0.8282155306144290  0.3553851425745194  0.4519033357708793   F   F   F
  0.5275400416093987  0.2984506619261467  0.5319227752078675   F   F   F
  0.7367509127497698  0.4990301841940763  0.5957460919426509   F   F   F
  0.5574339360525684  0.1724311050277691  0.3949085375269945   F   F   F
  0.8059640829434258  0.2564125703207623  0.3832928600033014   F   F   F
  0.2374462167159379  0.9532507503228373  0.5079195554207132   F   F   F
  0.6923509871270781  0.7751272079787697  0.5417531979663792   F   F   F
  0.9234464355727141  0.9496767703958184  0.5530758359659416   F   F   F
  0.5257372223071499  0.3177811194315368  0.3985559351687087   F   F   F
  0.4666429423253931  0.9911143284652724  0.5464864499545001   F   F   F
  0.8378686756904017  0.0947940909110514  0.5398344116484139   F   F   F
  0.5379032529954273  0.1164174891624583  0.4862370923690094   F   F   F
  0.3501934424681892  0.1866087322829628  0.4396363938456389   F   F   F
  0.0117603227697671  0.9624138997505156  0.3352437574830063   F   F   F
  0.4522776247033349  0.5854863536426933  0.6720672684594291   F   F   F
  0.6549652215052149  0.9253975041590294  0.3792282539811964   F   F   F
  0.0762933429000086  0.6860262572550013  0.4358810225764742   F   F   F
  0.4523412320846631  0.4049996617041316  0.5521995645967763   F   F   F
  0.7192194365794862  0.7004208511946786  0.3795829994963285   F   F   F
  0.4503464058269984  0.7041696472063279  0.6008068599367320   F   F   F
  0.7525510590585540  0.7093245752524027  0.4762954835743187   F   F   F
  0.7793488756437128  0.1202149960279115  0.6211009793074069   F   F   F
  0.9932746154998640  0.3080134732727942  0.4484029789284989   F   F   F
  0.5348269825714880  0.5067024571841827  0.5312769374509045   F   F   F
  0.8167775851685377  0.4990617343205841  0.4234422052650615   F   F   F
  0.2352953245927338  0.1457726053115351  0.6054958277070313   F   F   F
  0.2035333056693176  0.8307013159296162  0.4705336293601903   F   F   F
  0.2401242647689870  0.5597000130875642  0.5221549037216278   F   F   F
  0.0611529597264422  0.6254647433563747  0.6237497328973731   F   F   F
  0.0460740721579711  0.6023466920262663  0.3541786312221902   F   F   F
  0.8004083388221801  0.9780296013487941  0.6053743696943528   F   F   F
  0.5379909096643800  0.0276974916307395  0.4045027517534763   F   F   F
  0.6055652495527184  0.3125969397278183  0.6050804527326434   F   F   F
  0.8615461074870723  0.0040808493425857  0.3692063291070653   F   F   F
  0.0949113079349573  0.1490228352536036  0.4670823258906296   F   F   F
  0.1713701283990829  0.2023714831234713  0.5300900810061151   F   F   F
  0.6409886548370807  0.7044387200849300  0.4548155821771758   F   F   F
  0.4367877833594562  0.4097684807507846  0.3864132536704119   F   F   F
  0.5735859185106449  0.0581238686015126  0.5708672267955635   F   F   F
  0.1514377461550822  0.5934080233507046  0.3889583608347777   F   F   F
  0.2677397900298786  0.6023375312719352  0.3923062966030031   F   F   F
  0.4402584599838875  0.3221981821637669  0.4703244327181508   F   F   F
  0.2380096658428670  0.1585111292073265  0.4299011866524154   F   F   F
  0.0727184762744741  0.1499416785000349  0.5626272170437261   F   F   F
  0.8448554866563498  0.5442649868155840  0.5997707653089890   F   F   F
  0.6211794283797261  0.2799398764502143  0.4109054511829981   F   F   F
  0.6026669933268991  0.8915266656811696  0.4672234595428861   F   F   F
  0.0313853911711632  0.1952898289720011  0.3889918752683101   F   F   F
  0.6076497497182203  0.1952991193365747  0.5475997119798492   F   F   F
  0.1327997262830110  0.9383546444265392  0.4794870772378772   F   F   F
  0.0796164587630699  0.2794646923461173  0.5109404685086574   F   F   F
  0.3710968653732607  0.1058838154693760  0.5727564798561957   F   F   F
  0.0666682434615069  0.6970710142387233  0.5357498324328205   F   F   F
  0.6664883802395920  0.4153848774500233  0.4300115561107631   F   F   F
  0.7992569247319707  0.7293683472781112  0.5641101717770312   F   F   F
  0.7038385585664102  0.9572084331836876  0.4701845621740759   F   F   F
  0.5974502854550821  0.6336941333146058  0.5533275415955714   F   F   F
  0.7228402998194312  0.2936846539655704  0.4516681052539582   F   F   F
  0.9776802758295702  0.3141500229155696  0.5473946368781526   F   F   F
  0.1582895928580328  0.6297243238080839  0.5706656081985031   F   F   F
  0.6333338447636834  0.3267830791508146  0.5078007023299378   F   F   F
  0.8195399267379599  0.3964158655407886  0.6055950680596283   F   F   F
  0.9585781980424741  0.0272430442537654  0.4169530046787955   F   F   F
  0.2820513136929534  0.1957597313841575  0.5188057823662007   F   F   F
  0.2492575497062219  0.4430328890313291  0.4610556955705079   F   F   F
  0.2719831419309671  0.8503770589100839  0.5689803328013383   F   F   F
  0.2036681492717136  0.6855731693326916  0.4868887178860462   F   F   F
  0.1471234534025641  0.4760698765562736  0.4925449251270066   F   F   F
  0.2264365553148622  0.4266595375943822  0.5580372612492752   F   F   F
  0.9114169782388899  0.4527445980703959  0.4737188145108959   F   F   F
  0.8697881760712605  0.7045601104075629  0.4641535209108483   F   F   F
  0.7381202077648155  0.0928346184210156  0.4452296472671975   F   F   F
  0.2221834364137223  0.9297811896885051  0.4079468165165281   F   F   F
  0.2321680763121918  0.3954532435644822  0.6534832687502359   F   F   F
  0.6304557340410639  0.8826861266330113  0.5935424708537909   F   F   F
  0.4102232652989244  0.7890623918912851  0.4234373851432949   F   F   F
  0.9177713526838360  0.1960382935517870  0.5082451459005242   F   F   F
  0.1325470583719763  0.4435361137187215  0.3322726622007863   F   F   F
  0.1551476808383612  0.3035232550984901  0.3105604161752922   F   F   F
  0.3730051452223293  0.1309070431484400  0.3479534200993726   F   F   F
  0.0311858250366654  0.2937254063437322  0.6358360892332158   F   F   F
  0.5726892607312024  0.2568681912710389  0.3200996781806822   F   F   F
  0.2453449277072934  0.7711350123877665  0.6500889275726891   F   F   F
  0.2073742988503469  0.6484050495897407  0.3103690611938177   F   F   F
  0.2753744117323080  0.3921912989361971  0.3673758273212613   F   F   F
  0.3653508124399352  0.5975866320683707  0.3422207943191111   F   F   F
  0.2263808501748272  0.0561808239321806  0.3581188824802055   F   F   F
  0.2412033349838580  0.1960782275144553  0.3293429668079639   F   F   F
  0.5012729261245497  0.8923016217637851  0.4548416832162587   F   F   F
  0.5500212343315596  0.8279140317794571  0.5343433754574178   F   F   F
  0.5436191357864573  0.6453172801768972  0.6345312805771925   F   F   F
  0.4784848654684168  0.1228820408690154  0.5958174887485583   F   F   F
  0.2622047392893307  0.6947458905520136  0.5687235005538227   F   F   F
  0.4424768834028683  0.8473508228337536  0.5815621944670397   F   F   F
  0.7652491672294346  0.6169789683320559  0.6494696251904699   F   F   F
  0.8446580203932754  0.8315886405438206  0.6228885847755166   F   F   F
  0.6385635438664039  0.7389660720519231  0.6212756767266754   F   F   F
  0.0078716164740698  0.0330916842382365  0.6029353042762722   F   F   F
  0.2834498209792287  0.0019610570936237  0.5950192201686235   F   F   F
  0.5029101800981195  0.9722347135346325  0.6285114702731249   F   F   F
  0.4415794673645479  0.3883788066028515  0.6942500723430314   T   T   T
  0.0832252792112911  0.6064203006159019  0.4064130837160320   F   F   F
  0.4092386278400824  0.7652229605422747  0.5748221567211260   F   F   F
  0.8417638189206400  0.4414531150138785  0.4678389696388976   F   F   F
  0.0170894936360568  0.9904820387337452  0.3936113541928137   F   F   F
  0.0147002065988957  0.2841902735343993  0.3910814136036507   F   F   F
  0.0092265558125604  0.1146673671102718  0.5723793077937032   F   F   F
  0.6080701560037980  0.6567049504975842  0.6113096571618684   F   F   F
  0.2140565900276599  0.4768041174090598  0.5095378699455750   F   F   F
  0.9150621277607272  0.7555609372428762  0.4962545438487922   F   F   F
  0.5205785424525260  0.1104556259083296  0.4259865881079392   F   F   F
  0.4183821360171223  0.1708420886938882  0.5904951142855737   F   F   F
  0.0834525281222085  0.1391720768766334  0.4069808717903314   F   F   F
  0.7018979344879455  0.0448462543081121  0.4873230277072054   F   F   F
  0.6650593546056740  0.8980374632893202  0.4374764361266443   F   F   F
  0.6500987439622605  0.5040270568778311  0.4301508871204760   F   F   F
  0.1984606475206618  0.9124822312100775  0.4639906909803457   F   F   F
  0.2065955883745048  0.3661273443424307  0.5996922474892585   F   F   F
  0.6729690423386785  0.8123673760530252  0.5948772718752053   F   F   F
  0.2165655676397193  0.6419445312802026  0.5385392553782751   F   F   F
  0.3687891183512946  0.7351277331247985  0.4592092972079129   F   F   F
  0.7968994149311612  0.8877430975981540  0.5954677226327547   F   F   F
  0.8795600000023498  0.9121002989204428  0.5119597379952125   F   F   F
  0.5762902637408089  0.5743480503646836  0.5119510505091469   F   F   F
  0.5897666197838873  0.1153361350981754  0.5252543047733482   F   F   F
  0.8581223411646519  0.1521132321647087  0.4951759473310489   F   F   F
  0.8351725728711301  0.6037552436981741  0.6458236048756945   F   F   F
  0.1337385207486648  0.3603189034452470  0.3568722791356791   F   F   F
  0.7906552882913616  0.2799392454557648  0.4418726542293072   F   F   F
  0.3991760967689615  0.1774948437530099  0.3960031981861079   F   F   F
  0.8558868716160930  0.7499850134832542  0.5964472308840811   F   F   F
  0.2824476403176064  0.9354706588707629  0.5502208704273315   F   F   F
  0.0230747322536402  0.3304475144031116  0.5022455100715746   F   F   F
  0.5745593847912573  0.6954900807820579  0.4355643604055430   F   F   F
  0.2302409542041772  0.7526004963776103  0.4519695445397645   F   F   F
  0.5936290310680192  0.2838830737454288  0.5481258767069903   F   F   F
  0.9737033546457496  0.2718635869931276  0.6024101327683553   F   F   F
  0.8889063590224922  0.0254089987032842  0.4242001869335610   F   F   F
  0.1044769462153354  0.1952778960611852  0.5176896497293342   F   F   F
  0.0481456608521569  0.7330370932417907  0.4826301941714348   F   F   F
  0.2313047457474653  0.2058587795987563  0.5608093996743051   F   F   F
  0.5614078070497825  0.2577852695391769  0.3812261074005363   F   F   F
  0.4755146244953181  0.6247155310379355  0.6208934115334870   F   F   F
  0.2812581872122095  0.7709205228440865  0.5977145847786858   F   F   F
  0.2085008252580423  0.6433998443080498  0.3717945352858223   F   F   F
  0.7402827410576336  0.7101822449098236  0.5358484173299232   F   F   F
  0.9862611675234660  0.9902666784364698  0.5503178408462759   F   F   F
  0.7031045577904180  0.7368181529665634  0.4342603982179796   F   F   F
  0.7880672431590483  0.0590949927783342  0.5767075484131468   F   F   F
  0.4563138979678243  0.3284515948311224  0.4092878915485585   F   F   F
  0.4488876990592203  0.9361500023856451  0.5947318279929092   F   F   F
  0.5078195922352080  0.0413439282256860  0.5858632079162618   F   F   F
  0.2442471516429308  0.3704063236853941  0.4209471039025985   F   F   F
  0.6585253436744694  0.3300021106527140  0.4503479098948588   F   F   F
  0.4603540160130279  0.3186353076678685  0.5288903287387328   F   F   F
  0.3372993678081997  0.5899425415699397  0.3990830096962270   F   F   F
  0.8030776865778080  0.4765725450994438  0.5797638984734803   F   F   F
  0.0692097893475037  0.8988591555082337  0.4805055068825652   F   F   F
  0.2119075788177369  0.1444543211161857  0.3735965933534686   F   F   F
  0.0782328565913559  0.4939849948658406  0.4946876202126234   F   F   F
  0.5575701889191933  0.8523400984339062  0.4747302534090920   F   F   F
  0.7179363541861932  0.5845816071144085  0.6096660111935677   F   F   F
  0.2866421241915660  0.2101017383532380  0.4591107728955208   F   F   F
  0.0880582326782644  0.6254447753796555  0.5675944888742421   F   F   F
  0.3525372443140853  0.0196581868167129  0.5804349020096993   F   F   F
  0.4856745224862067  0.4820978566455594  0.5712544396805797   F   F   F
  0.4654557094676193  0.4789381747527132  0.6910697079045670   T   T   T

  0.00000000E+00  0.00000000E+00  0.00000000E+00
  0.00000000E+00  0.00000000E+00  0.00000000E+00
  0.00000000E+00  0.00000000E+00  0.00000000E+00
  0.00000000E+00  0.00000000E+00  0.00000000E+00
  0.00000000E+00  0.00000000E+00  0.00000000E+00
  0.00000000E+00  0.00000000E+00  0.00000000E+00
  0.00000000E+00  0.00000000E+00  0.00000000E+00
  0.00000000E+00  0.00000000E+00  0.00000000E+00
  0.00000000E+00  0.00000000E+00  0.00000000E+00
  0.00000000E+00  0.00000000E+00  0.00000000E+00
  0.00000000E+00  0.00000000E+00  0.00000000E+00
  0.00000000E+00  0.00000000E+00  0.00000000E+00
  0.00000000E+00  0.00000000E+00  0.00000000E+00
  0.00000000E+00  0.00000000E+00  0.00000000E+00
  0.00000000E+00  0.00000000E+00  0.00000000E+00
  0.00000000E+00  0.00000000E+00  0.00000000E+00
  0.00000000E+00  0.00000000E+00  0.00000000E+00
  0.00000000E+00  0.00000000E+00  0.00000000E+00
  0.00000000E+00  0.00000000E+00  0.00000000E+00
  0.00000000E+00  0.00000000E+00  0.00000000E+00
  0.00000000E+00  0.00000000E+00  0.00000000E+00
  0.00000000E+00  0.00000000E+00  0.00000000E+00
  0.00000000E+00  0.00000000E+00  0.00000000E+00
  0.00000000E+00  0.00000000E+00  0.00000000E+00
  0.00000000E+00  0.00000000E+00  0.00000000E+00
  0.00000000E+00  0.00000000E+00  0.00000000E+00
  0.00000000E+00  0.00000000E+00  0.00000000E+00
  0.00000000E+00  0.00000000E+00  0.00000000E+00
  0.00000000E+00  0.00000000E+00  0.00000000E+00
  0.00000000E+00  0.00000000E+00  0.00000000E+00
  0.00000000E+00  0.00000000E+00  0.00000000E+00
  0.00000000E+00  0.00000000E+00  0.00000000E+00
  0.00000000E+00  0.00000000E+00  0.00000000E+00
  0.00000000E+00  0.00000000E+00  0.00000000E+00
  0.00000000E+00  0.00000000E+00  0.00000000E+00
  0.00000000E+00  0.00000000E+00  0.00000000E+00
  0.00000000E+00  0.00000000E+00  0.00000000E+00
  0.00000000E+00  0.00000000E+00  0.00000000E+00
  0.00000000E+00  0.00000000E+00  0.00000000E+00
  0.00000000E+00  0.00000000E+00  0.00000000E+00
  0.00000000E+00  0.00000000E+00  0.00000000E+00
  0.00000000E+00  0.00000000E+00  0.00000000E+00
  0.00000000E+00  0.00000000E+00  0.00000000E+00
  0.00000000E+00  0.00000000E+00  0.00000000E+00
  0.00000000E+00  0.00000000E+00  0.00000000E+00
  0.00000000E+00  0.00000000E+00  0.00000000E+00
  0.00000000E+00  0.00000000E+00  0.00000000E+00
  0.00000000E+00  0.00000000E+00  0.00000000E+00
  0.00000000E+00  0.00000000E+00  0.00000000E+00
  0.00000000E+00  0.00000000E+00  0.00000000E+00
  0.00000000E+00  0.00000000E+00  0.00000000E+00
  0.00000000E+00  0.00000000E+00  0.00000000E+00
  0.00000000E+00  0.00000000E+00  0.00000000E+00
  0.00000000E+00  0.00000000E+00  0.00000000E+00
  0.00000000E+00  0.00000000E+00  0.00000000E+00
  0.00000000E+00  0.00000000E+00  0.00000000E+00
  0.00000000E+00  0.00000000E+00  0.00000000E+00
  0.00000000E+00  0.00000000E+00  0.00000000E+00
  0.00000000E+00  0.00000000E+00  0.00000000E+00
  0.00000000E+00  0.00000000E+00  0.00000000E+00
  0.00000000E+00  0.00000000E+00  0.00000000E+00
  0.00000000E+00  0.00000000E+00  0.00000000E+00
  0.00000000E+00  0.00000000E+00  0.00000000E+00
  0.00000000E+00  0.00000000E+00  0.00000000E+00
  0.00000000E+00  0.00000000E+00  0.00000000E+00
  0.00000000E+00  0.00000000E+00  0.00000000E+00
  0.00000000E+00  0.00000000E+00  0.00000000E+00
  0.00000000E+00  0.00000000E+00  0.00000000E+00
  0.00000000E+00  0.00000000E+00  0.00000000E+00
  0.00000000E+00  0.00000000E+00  0.00000000E+00
  0.00000000E+00  0.00000000E+00  0.00000000E+00
  0.00000000E+00  0.00000000E+00  0.00000000E+00
  0.00000000E+00  0.00000000E+00  0.00000000E+00
  0.00000000E+00  0.00000000E+00  0.00000000E+00
  0.00000000E+00  0.00000000E+00  0.00000000E+00
  0.00000000E+00  0.00000000E+00  0.00000000E+00
  0.00000000E+00  0.00000000E+00  0.00000000E+00
  0.00000000E+00  0.00000000E+00  0.00000000E+00
  0.00000000E+00  0.00000000E+00  0.00000000E+00
  0.00000000E+00  0.00000000E+00  0.00000000E+00
  0.00000000E+00  0.00000000E+00  0.00000000E+00
  0.00000000E+00  0.00000000E+00  0.00000000E+00
  0.00000000E+00  0.00000000E+00  0.00000000E+00
  0.00000000E+00  0.00000000E+00  0.00000000E+00
  0.00000000E+00  0.00000000E+00  0.00000000E+00
  0.00000000E+00  0.00000000E+00  0.00000000E+00
  0.00000000E+00  0.00000000E+00  0.00000000E+00
  0.00000000E+00  0.00000000E+00  0.00000000E+00
  0.00000000E+00  0.00000000E+00  0.00000000E+00
  0.00000000E+00  0.00000000E+00  0.00000000E+00
  0.00000000E+00  0.00000000E+00  0.00000000E+00
  0.00000000E+00  0.00000000E+00  0.00000000E+00
  0.00000000E+00  0.00000000E+00  0.00000000E+00
  0.00000000E+00  0.00000000E+00  0.00000000E+00
  0.00000000E+00  0.00000000E+00  0.00000000E+00
  0.00000000E+00  0.00000000E+00  0.00000000E+00
  0.00000000E+00  0.00000000E+00  0.00000000E+00
  0.00000000E+00  0.00000000E+00  0.00000000E+00
  0.00000000E+00  0.00000000E+00  0.00000000E+00
  0.00000000E+00  0.00000000E+00  0.00000000E+00
  0.00000000E+00  0.00000000E+00  0.00000000E+00
  0.00000000E+00  0.00000000E+00  0.00000000E+00
  0.00000000E+00  0.00000000E+00  0.00000000E+00
  0.00000000E+00  0.00000000E+00  0.00000000E+00
  0.00000000E+00  0.00000000E+00  0.00000000E+00
  0.00000000E+00  0.00000000E+00  0.00000000E+00
  0.00000000E+00  0.00000000E+00  0.00000000E+00
  0.00000000E+00  0.00000000E+00  0.00000000E+00
  0.00000000E+00  0.00000000E+00  0.00000000E+00
  0.00000000E+00  0.00000000E+00  0.00000000E+00
  0.00000000E+00  0.00000000E+00  0.00000000E+00
  0.00000000E+00  0.00000000E+00  0.00000000E+00
  0.00000000E+00  0.00000000E+00  0.00000000E+00
  0.00000000E+00  0.00000000E+00  0.00000000E+00
  0.00000000E+00  0.00000000E+00  0.00000000E+00
  0.00000000E+00  0.00000000E+00  0.00000000E+00
  0.00000000E+00  0.00000000E+00  0.00000000E+00
  0.00000000E+00  0.00000000E+00  0.00000000E+00
  0.00000000E+00  0.00000000E+00  0.00000000E+00
  0.00000000E+00  0.00000000E+00  0.00000000E+00
  0.00000000E+00  0.00000000E+00  0.00000000E+00
  0.00000000E+00  0.00000000E+00  0.00000000E+00
  0.00000000E+00  0.00000000E+00  0.00000000E+00
  0.00000000E+00  0.00000000E+00  0.00000000E+00
  0.00000000E+00  0.00000000E+00  0.00000000E+00
  0.00000000E+00  0.00000000E+00  0.00000000E+00
  0.00000000E+00  0.00000000E+00  0.00000000E+00
  0.00000000E+00  0.00000000E+00  0.00000000E+00
  0.00000000E+00  0.00000000E+00  0.00000000E+00
  0.00000000E+00  0.00000000E+00  0.00000000E+00
  0.00000000E+00  0.00000000E+00  0.00000000E+00
  0.00000000E+00  0.00000000E+00  0.00000000E+00
  0.00000000E+00  0.00000000E+00  0.00000000E+00
  0.00000000E+00  0.00000000E+00  0.00000000E+00
  0.00000000E+00  0.00000000E+00  0.00000000E+00
  0.00000000E+00  0.00000000E+00  0.00000000E+00
  0.00000000E+00  0.00000000E+00  0.00000000E+00
  0.00000000E+00  0.00000000E+00  0.00000000E+00
  0.00000000E+00  0.00000000E+00  0.00000000E+00
  0.00000000E+00  0.00000000E+00  0.00000000E+00
  0.00000000E+00  0.00000000E+00  0.00000000E+00
  0.00000000E+00  0.00000000E+00  0.00000000E+00
  0.00000000E+00  0.00000000E+00  0.00000000E+00
  0.00000000E+00  0.00000000E+00  0.00000000E+00
  0.00000000E+00  0.00000000E+00  0.00000000E+00
  0.00000000E+00  0.00000000E+00  0.00000000E+00
  0.00000000E+00  0.00000000E+00  0.00000000E+00
  0.00000000E+00  0.00000000E+00  0.00000000E+00
  0.00000000E+00  0.00000000E+00  0.00000000E+00
  0.00000000E+00  0.00000000E+00  0.00000000E+00
  0.00000000E+00  0.00000000E+00  0.00000000E+00
  0.00000000E+00  0.00000000E+00  0.00000000E+00
  0.00000000E+00  0.00000000E+00  0.00000000E+00
  0.00000000E+00  0.00000000E+00  0.00000000E+00
  0.00000000E+00  0.00000000E+00  0.00000000E+00
  0.00000000E+00  0.00000000E+00  0.00000000E+00
  0.00000000E+00  0.00000000E+00  0.00000000E+00
  0.00000000E+00  0.00000000E+00  0.00000000E+00
  0.00000000E+00  0.00000000E+00  0.00000000E+00
  0.00000000E+00  0.00000000E+00  0.00000000E+00
  0.00000000E+00  0.00000000E+00  0.00000000E+00
  0.00000000E+00  0.00000000E+00  0.00000000E+00
  0.00000000E+00  0.00000000E+00  0.00000000E+00
  0.00000000E+00  0.00000000E+00  0.00000000E+00
  0.00000000E+00  0.00000000E+00  0.00000000E+00
  0.00000000E+00  0.00000000E+00  0.00000000E+00
  0.00000000E+00  0.00000000E+00  0.00000000E+00
  0.00000000E+00  0.00000000E+00  0.00000000E+00
  0.00000000E+00  0.00000000E+00  0.00000000E+00
  0.00000000E+00  0.00000000E+00  0.00000000E+00
  0.00000000E+00  0.00000000E+00  0.00000000E+00
  0.00000000E+00  0.00000000E+00  0.00000000E+00
  0.00000000E+00  0.00000000E+00  0.00000000E+00
  0.00000000E+00  0.00000000E+00  0.00000000E+00
  0.00000000E+00  0.00000000E+00  0.00000000E+00
  0.00000000E+00  0.00000000E+00  0.00000000E+00
  0.00000000E+00  0.00000000E+00  0.00000000E+00
  0.00000000E+00  0.00000000E+00  0.00000000E+00
  0.00000000E+00  0.00000000E+00  0.00000000E+00
  0.00000000E+00  0.00000000E+00  0.00000000E+00
  0.00000000E+00  0.00000000E+00  0.00000000E+00
  0.00000000E+00  0.00000000E+00  0.00000000E+00
  0.00000000E+00  0.00000000E+00  0.00000000E+00
  0.00000000E+00  0.00000000E+00  0.00000000E+00
  0.00000000E+00  0.00000000E+00  0.00000000E+00
  0.00000000E+00  0.00000000E+00  0.00000000E+00
  0.00000000E+00  0.00000000E+00  0.00000000E+00
  0.00000000E+00  0.00000000E+00  0.00000000E+00
  0.00000000E+00  0.00000000E+00  0.00000000E+00