 C  H  O Si  W 
 1.0000000000000000
    23.4112945954000011    0.0000000000000000    0.0000000000000000
     0.0000000000000000   18.1212369513999967    0.0000000000000000
     0.0000000000000000    0.0000000000000000   26.8833665072999999
 C   H   O   Si  W  
   5  54 154  65   1
Selective dynamics
Cartesian
 12.1068738814594568  8.7578131388118923 20.1009479593228875   T   T   T
  9.8733706342822085  9.4039049598305251 20.8089983499767897   T   T   T
  8.9340872782455065  9.1821231932647045 19.7745455585098746   T   T   T
 10.2155920526375397 10.8013248649306490 21.2792563800083769   T   T   T
  7.9487495673567663  8.0241143418116589 19.8219438461691269   T   T   T
 17.8137088705968587  1.8603816260778194 17.5043179067343679   F   F   F
 21.6888712401999761  5.0498263038999998  9.5794825048000920   F   F   F
 18.5731093523999746  3.7561500092000717 10.0397684046000943   F   F   F
 22.8152222617999563 17.0993550373000218  8.7452341457000404   F   F   F
 14.6492117519999905 17.4593198081999397 10.0874778744999212   F   F   F
 19.2098661759999132 18.0307515164999437  9.9197641015000624   F   F   F
 17.5583087953000678  2.5583336844999347 12.3136086081000524   F   F   F
 21.4412131930461634  4.5208473557138369 13.6355230556014941   F   F   F
 13.6603233154999106  5.5136318141999912  8.2243523073000500   F   F   F
 20.8235150520945815  6.0524398733402345 16.5351309254772723   F   F   F
 13.8026045670527306  6.5275833235567173 16.5105963949375329   F   F   F
 13.8899099509479669 15.7790881407581924 15.5442976548785055   F   F   F
  0.5829693535645398  6.0848479779236238 17.6771403192879077   F   F   F
 21.8958933804999596  7.6021166866000609 12.2077758528999212   F   F   F
 17.4680653933000478  9.6099092702999585 11.3579048886000162   F   F   F
 18.6632495882599549  6.9255548394765878 17.0558806455906193   F   F   F
 13.8384634643999611 10.3052362505000517 10.1628465652000148   F   F   F
 16.8194650285000691 11.7051010637000061 10.3087117032000428   F   F   F
 19.6924786736999344  9.8294408733999976 11.2801575466999200   F   F   F
  0.1115442509000294 10.9415693303000445  9.6182851782999332   F   F   F
 19.3929495395000089 12.9087840700999816 12.5798631537000816   F   F   F
 20.5129736687557447 10.8641227205582336 19.3959056430279801   F   F   F
 12.1736464258000137 17.8596525724999537 11.3367982008999686   F   F   F
  5.2229327504000613 17.7616180148999909 10.5706747175000295   F   F   F
  5.0655882157000081  4.3101626270000093  8.5819858889999896   F   F   F
  3.6873034880000279  5.9764968392999585  7.4999999999999991   F   F   F
  7.9960545443999731  2.8194054337999952  8.8922852950000397   F   F   F
  5.2140666474000010  0.8292083384000020  8.6762955942999476   F   F   F
 11.9643192944173418 14.9696483216398573 14.6976771502140942   F   F   F
  9.5077857240221917  4.4932623729022394 17.6168826661740141   F   F   F
  5.6991704574478330  1.6998863312500849 16.1019857093372316   F   F   F
  7.3834768279999352  8.8275152995000301 11.8941332716999124   F   F   F
  9.5741936927999891  7.9504183304001019 10.9063290237999340   F   F   F
  9.3293892649999428 14.3721996109003616 10.4518979467999813   F   F   F
  5.7170933222999532 11.8772037598999489  7.9124974079999815   F   F   F
  7.2982693201000259  7.5832975607001574  9.9268885897999795   F   F   F
  9.4926781673000491 10.5878700436000113  9.1086192438000104   F   F   F
  3.2625423085999494  8.8426860730000545  9.4610486483999399   F   F   F
 13.8892034121999277 12.6483901404999646  9.4736442360000641   F   F   F
 10.9800570667000255 15.6101312838004116 11.9316011073000059   F   F   F
  2.6322329095957304  5.9666668465940162 16.4622975697414411   F   F   F
  1.6702937209586257 12.0776196939624878 17.3419845308233285   F   F   F
  5.7348762807478817  6.4617124411678448 18.1623862391714859   F   F   F
  5.7385461543626217 14.8096837724929369 17.9691053119759374   F   F   F
 12.3386689029256349  7.9322401063746142 20.7793975837034104   T   T   T
 12.6560485449807612  9.6897955631981478 20.2901863165274854   T   T   T
 10.0040875552595363  8.5976506173863729 21.5362589252901522   T   T   T
  8.5814799022448689 10.0830483243632845 19.2628271861766969   T   T   T
 11.1849002433117182 10.8571251266771345 21.7905825910396267   T   T   T
 10.1993390340188945 11.5092976854778666 20.4408601978266198   T   T   T
  9.4350109222342127 11.1037898171657634 22.0000324322320715   T   T   T
  7.6091507482757521  7.7494617470853564 18.8156910629443779   T   T   T
  8.3909904527591301  7.1411487065321868 20.3011200215818910   T   T   T
  7.0623621892549719  8.3402667546234195 20.3991603154339423   T   T   T
  8.6374036172999702 11.7489963463000464 11.8017983751999189   F   F   F
  8.1194033509000221  9.1337171498999883 11.3014481090000363   F   F   F
 20.1491477463690352 10.2623629834666481 18.7295174367074111   F   F   F
  8.1519518756340315 17.4028626756679792 14.2969305509574927   F   F   F
  0.7768133503633814 16.8912193212220316 14.2099111949076065   F   F   F
 14.8979056623999124  1.4291955993999259 13.1560924437000129   F   F   F
  1.6070951569999823  0.9471140842000373 10.6219066880999087   F   F   F
 10.5795533143000231  2.3478295855000195 11.3070708689999098   F   F   F
 18.8667912275999932  3.8716055282001687 12.9891449910999377   F   F   F
 22.7837037697617362  3.2822918575494890 16.0974818700121709   F   F   F
  6.4326112151999260  5.4213824822999364 12.0575185301000349   F   F   F
 13.0249712830999922 14.0456129436999504 11.8757543678000754   F   F   F
  9.1604650096700464 17.6134463857661139 16.6910272792952519   F   F   F
  4.1559083969999504  6.3418611930999456 10.8951059422999119   F   F   F
 20.2822063842396432 12.3980941210885192 17.1347118638550029   F   F   F
 20.2670643243999073 17.5264423574000219 12.5555660742999358   F   F   F
  7.0479032006999187 13.7891166871000426 12.3105725114999416   F   F   F
  9.8704580514999201  4.7342133258999475 10.2048265390999386   F   F   F
 18.9902707141803901  8.4344364284672526 13.9831669826643221   F   F   F
 23.0235459093736559  1.3116960111179732 14.0100769427772303   F   F   F
 11.9067368518165164  8.4491342528687490 16.8897084236895196   F   F   F
  0.8085419767999923 16.6705913691000163 11.5438589107999157   F   F   F
 22.5459321885000215  5.4942740150999398  9.4429874702999967   F   F   F
  1.6300509607000222  6.0906522151999729 10.1181405465000278   F   F   F
  4.8764710002999863 13.2039359056999519 10.6286105082999143   F   F   F
  0.9107289250999606  7.5946451163000637 13.4177235483999091   F   F   F
  5.5312667753766691  5.1910356529199468 15.7981272100531349   F   F   F
  9.2673148609098899  3.5912874015442329 17.3462897160242342   F   F   F
 10.6247988506678386 10.2324383635295604 15.5127775775686967   F   F   F
 21.2980550117169400 13.5734675620605731 14.9867106725751604   F   F   F
 20.3473945888999168  1.9578790052000321 11.8899304633000895   F   F   F
 13.4047640152000547 12.0928786282999461 10.1116871976000020   F   F   F
  3.3343901320999376  2.8835508662999696 10.1073996205999102   F   F   F
  8.2017520962850430 13.8812031666194802 16.3114312797372456   F   F   F
 21.3275968958999371 15.3133072743004046 12.9894949103000137   F   F   F
  1.4360022323999673  9.7287793911999820 11.8892624465000090   F   F   F
 16.5831336499999544 10.0603046307999300 11.2898762290000807   F   F   F
  1.7672544171999933 14.8015496523004302 12.9845089027999627   F   F   F
 16.3987871110999741 14.9963331995004339 11.6306931007999363   F   F   F
 17.0969374664145128  0.8923546772872005 14.5963519759954554   F   F   F
 21.4473530771701100  5.4306602200683400 16.9553791861941434   F   F   F
 17.2002153181279027 15.4331692360928869 16.4812637670436430   F   F   F
 14.6349142311000033  9.5570316753999993 13.0754970996000601   F   F   F
 13.0301014596000186 11.4109980010999585 12.5612375163999523   F   F   F
  9.9833412247146818  4.4887850435403136 14.9542803430999207   F   F   F
 22.9030375854000319 13.1966754401999573 12.8178719415999129   F   F   F
 15.3059145088598640 10.7658728634164902 17.0308604243185755   F   F   F
  9.2863232047274078 13.5303415453203346 13.8549601718764723   F   F   F
 14.1097547432000479  9.3807383104000266 10.3681346438000581   F   F   F
 16.8526599413737834 11.4239029936150054 14.9724083354588906   F   F   F
  3.2011941513212303  6.6474022554628345 16.0615269371649205   F   F   F
  1.5484696747957736  9.9415365097420469 14.5683018853055533   F   F   F
 19.1668912161249239 16.0193743986309336 14.4224667697441795   F   F   F
 19.3895977756999294  6.4400183775999373 12.1486830014000038   F   F   F
 12.3503953249872449  5.4082951630658957 14.2998749194933428   F   F   F
 17.2482926618147481  9.0430442136816129 16.0156605349858374   F   F   F
 13.0502500944000470  3.1246649119999450 10.6164709512000286   F   F   F
 18.8686625790999472  4.6465129441000483 10.3042024350999810   F   F   F
  5.5589233301000149 17.2740827206999761 13.6545875645999075   F   F   F
 16.2088329230480781 14.0462638032604268 14.5641497774319806   F   F   F
 21.6190765462649281 17.2093177835829110 14.8685404046037899   F   F   F
 12.3081889911999873  5.7585869639000205 10.7145252788000924   F   F   F
 10.9247153936440160 17.9602175920468241 14.6913955254001074   F   F   F
 19.6155903988456402  1.7177861829917460 14.5125663415969193   F   F   F
 12.5930115196999264  2.1096289063999478 13.0716899635999635   F   F   F
  8.1984818470000391  3.3815810548999350 11.8189063057000041   F   F   F
  0.2753243809000080 17.4401303227000142  9.0124808017000539   F   F   F
 10.5884047108375672 10.6097369461704112 18.0674306955548651   F   F   F
 15.3335837504000008 16.7693474470999391 10.1949321416999528   F   F   F
  1.7861259262999702 12.4316443625999717 11.7179492835000651   F   F   F
 10.5898938419801762  7.3390948349774261 14.8449832802265860   F   F   F
 16.8378581084999581 12.6924922102000490 10.2044688954000708   F   F   F
 10.5431923767953393 12.7604250310096532 16.1517110157791635   F   F   F
 17.6181945417000740 12.8538387035999460 12.8044260507000995   F   F   F
 18.2455661202886894  2.1784444281334352 16.6972852647640373   F   F   F
 23.2538446375999825  5.5815851334000142 12.0545816254999583   F   F   F
 12.5209920465500080  9.1820752904911451 14.2825126263686268   F   F   F
 19.1218206653000493  9.0436159409999366 11.3835519988000051   F   F   F
  5.5085681609607464  2.6415799218732245 16.2777662548890127   F   F   F
  4.7649781789999919 15.0533353818003643 12.6495280121000508   F   F   F
  5.6216199020106377 10.1424565588614595 14.0372816503325346   F   F   F
  1.4316699555363726 11.3341948191074824 16.7684926783106327   F   F   F
  1.0786536764999786 10.9152671330999329  9.5215139521999852   F   F   F
 18.7385954167807753 17.7231061515248349 16.2745010546190798   F   F   F
 12.5950636758000325  0.5019128088000487 10.8743957286000903   F   F   F
 14.1770664540155629  5.6646432150902548 16.2665995772146807   F   F   F
 20.1699097299000023  0.0739500378999604  9.9255090622000601   F   F   F
  2.2219965905000114  2.7004781087999956 12.5567453559999347   F   F   F
  4.0119965608023929  3.6672215978866252 14.2506059295717051   F   F   F
 15.0063742307000627 12.7653009643999553 12.2269739889000402   F   F   F
 10.2257674718999834  7.4255117349001578 10.3880891216999736   F   F   F
 13.4283889140257671  1.0532763954600934 15.3468328849510502   F   F   F
  3.5453536881000334 10.7532874000000227 10.4565101703999730   F   F   F
  6.2681350993000278 10.9151011289000461 10.5465139547000728   F   F   F
 10.3070205047999135  5.8386296042999621 12.6439041021000076   F   F   F
  5.5721144036000725  2.8724177317999442 11.5571911627000699   F   F   F
  1.7024336705902814  2.7171286849897638 15.1253136827688071   F   F   F
 19.7791606886518778  9.8627547904357389 16.1238573041653588   F   F   F
 14.5426145943999447  5.0728568332999746 11.0465218440000097   F   F   F
 14.1092145237000040 16.1555659573000447 12.5605395037000633   F   F   F
  0.7347726386999679  3.5388932650000116 10.4574111511999099   F   F   F
 14.2258673014743202  3.5390616178977568 14.7213237564462229   F   F   F
  3.1090135142000550 17.0041468561000109 12.8902268328999199   F   F   F
  1.8639243707447057  5.0642459095540602 13.7357998783298374   F   F   F
  8.6878580386829434  1.9187457094388660 15.3976223674050861   F   F   F
  1.5607898878352628 12.6317890209725743 14.4027591015161391   F   F   F
 15.6033558142000608  7.5272877903001207 11.5601582653000463   F   F   F
 18.7116393223135695 13.2170566458776140 15.1651804983779517   F   F   F
 16.4777718421999246 17.3458008295999377 12.6401439110000666   F   F   F
 13.9870846388946912 11.4833215445059871 14.8753070992969931   F   F   F
 16.9226272044999675  5.3219292035000159 12.1423592131999101   F   F   F
 22.8887609575579170  5.6927870035408006 14.7158106473258563   F   F   F
  3.7057642897852738 11.4113836857864523 15.3414126983115473   F   F   F
 14.8271652169999264  5.9217136090000135 13.6513923934000658   F   F   F
 19.1864906575549803  7.1835458307588889 16.2804341696603068   F   F   F
 22.4415565871000453  0.4936776601999607 11.2091004411000306   F   F   F
  6.6031863958853130  3.5474084779546691 13.9472459934570114   F   F   F
  5.8354419262999224  8.0283039594000147 12.3947292443000965   F   F   F
  6.3674774607284297 15.4098841825443085 15.2961068221439351   F   F   F
  4.7681350422999893 12.4234338489999807 13.0892078511999728   F   F   F
  3.4443505095000329  8.6269750384999835 13.2412657434999588   F   F   F
  5.3011729036437849  7.7315985783226084 15.0019202188942629   F   F   F
 21.3374513767999225  8.2042921400999997 12.7351565119000814   F   F   F
 20.3628672255999277 12.7675007071999929 12.4780092183000697   F   F   F
 17.2803496307999538  1.6822781177000268 11.9692717873999701   F   F   F
  5.2016018840999765 16.8487852512999865 10.9669837839000888   F   F   F
  5.4353552301920338  7.1661019298316475 17.5678302202010173   F   F   F
 14.7597849189944377 15.9953644544303000 15.9564197816108901   F   F   F
  9.6038577138000498 14.2987865729004238 11.3834224176999435   F   F   F
 21.4862155089000417  3.5524563690000441 13.6633405327999533   F   F   F
  3.1030982313000175  8.0374230132000459  8.9326077583000281   F   F   F
  3.6322080618999699  5.5002168258999680  8.3489094906999988   F   F   F
  8.7325333403999128  2.3721975475000248  9.3541593199999600   F   F   F
  0.7301005371339115  5.3226676870010099 17.0934146254249377   F   F   F
 13.4073969946000204  4.6547693593000314  8.6053569674000610   F   F   F
  5.7438423800424969 13.9739202809994829 17.4765789022741984   F   F   F
  4.8549008018999906 11.7499015440999575  8.3437652246000233   F   F   F
  6.4468714771000366  7.1069914583001772  9.8762990118000236   F   F   F
  8.5533355007000544 10.8290089587000349  9.2000470400999959   F   F   F
  5.2998687741999921  1.0180660225999283  9.6274411709000614   F   F   F
  5.6468823327000530  3.5531800217999630  8.8538476833000352   F   F   F
 11.7354481462000155 16.1696091201000449 12.2276756726999256   F   F   F
 12.8767091506616183 15.0028263452644648 14.3649488031696375   F   F   F
 12.7268277355935471 11.6939473429184986 17.0583369761030994   F   F   F
 11.2019501449214847  2.2267745796590481 16.0175799214866430   F   F   F
  6.1385523958126296 12.5896549037045062 15.2892023067031424   F   F   F
 10.3589566689990527 15.3550450415342503 15.6343496206470398   F   F   F
 17.9154736928928457 11.1804220791755000 17.4599299693540750   F   F   F
 19.7745377477944118 15.0694148013871363 16.7453421177335748   F   F   F
 14.9495992433390583 13.3909792906982528 16.7019817195139524   F   F   F
  0.1842847322164168  0.5996622512020519 16.2089307650494305   F   F   F
  6.6359272619581660  0.0355367802687879 15.9961197746809685   F   F   F
 11.7737783813027228 17.6180956163375519 16.8965042093944824   F   F   F
 10.3379469977511871  7.0379043813521900 18.6637791425172885   T   T   T
  1.9484115293999553 10.9890859595999775 10.9257518829000855   F   F   F
  9.5808060761814122 13.8667865886383748 15.4531547156507330   F   F   F
 19.7067807445000476  7.9996765001001302 12.5770864872000807   F   F   F
  0.4000871699999393 17.9487597199999485 10.5815982962000845   F   F   F
  0.3441508672999903  5.1498792860000311 10.5135849760999207   F   F   F
  0.2160056162288056  2.0779145299983699 15.3874827126128277   F   F   F
 14.2357095568758005 11.9003060151241140 16.4340615629345059   F   F   F
  5.0113418892242958  8.6402803909726682 13.6980933070959150   F   F   F
 21.4227890460999397 13.6916987750000239 13.3409927832000630   F   F   F
 12.1874176174000315  2.0015925697000370 11.4519535752999726   F   F   F
  9.7948674397496216  3.0958699704940029 15.8744965781090670   F   F   F
  1.9537317205999265  2.5219701820999303 10.9410159377999499   F   F   F
 16.4323393202000609  0.8126696007000422 13.1008835612999164   F   F   F
 15.5699004741000309 16.2735496634999528 11.7608393706999994   F   F   F
 15.2196532110000025  9.1335937275999406 11.5639039518999898   F   F   F
  4.6462206847000562 16.5353067256999751 12.4736318016000123   F   F   F
  4.8366701815455091  6.6346803612160263 16.1217464808402120   F   F   F
 15.7550765037749692 14.7211017130439643 15.9923037266838826   F   F   F
  5.0700803032335342 11.6328289609839732 14.4777481809026281   F   F   F
  8.6338306932999949 13.3214238415000157 12.3450918403999772   F   F   F
 18.6564469658552383 16.0870030235459573 16.0081770308036724   F   F   F
 20.5916382743850122 16.5283856401800904 13.7632012735065565   F   F   F
 13.4917011368968538 10.4078971132330427 13.7629677246346596   F   F   F
 13.8072000782937732  2.0900334331727217 14.1206039847589171   F   F   F
 20.0897549279000103  2.7564799235000073 13.3119964777000686   F   F   F
 19.5524711414842791 10.9407918317048960 17.3619126689390377   F   F   F
  3.1309919080000070  6.5294242273999368  9.5939282762999323   F   F   F
 18.5102638775999857  5.0728453989000393 11.8790245131999104   F   F   F
  9.3452291969000552  3.2164261213000116 10.6458991149000965   F   F   F
 20.0374196917395793 13.5906561393289493 16.0345095101208521   F   F   F
  6.6124649152510298 16.9518854704793895 14.7917893196635166   F   F   F
  0.5402093544999489  5.9881177084999502 13.5020501238999753   F   F   F
 13.4511790198999126 12.6031405511999974 11.7094363382999234   F   F   F
  5.3902388067999931 13.6380519245999334 12.1504629159999400   F   F   F
 13.8976241267151845  5.1443124458326679 14.7354688356491099   F   F   F
 22.7956560841408802  4.9265044783599938 16.1948123869229086   F   F   F
 20.8104486387999650  0.4604424862000283 11.4039290978000931   F   F   F
  2.4459405662749383  3.5386770258955353 13.9172405907095289   F   F   F
  1.1271522497000623 13.2835388607999842 12.9747243974000472   F   F   F
  5.4151435440079823  3.7304157236350290 15.0764446321832324   F   F   F
 13.1432835589999399  4.6713879518999404 10.2486411673999296   F   F   F
 11.1324129584809697 11.3206181651581712 16.6917051442225031   F   F   F
  6.5846182781931271 13.9700334651548825 16.0685802493640146   F   F   F
  4.8812742435000462 11.6592010332000378  9.9950887575000422   F   F   F
 17.3309773347904539 12.8693807386881165 14.4054093954370170   F   F   F
 23.0896507408950420 17.9448571250231126 14.7943962109763323   F   F   F
 16.4605879337999248 13.3520563399999848 11.6743814448999945   F   F   F
 18.4496743905812757  1.0708743667775036 15.5038403915170377   F   F   F
 10.6828990933000316  5.9519491769999977 11.0030363954999526   F   F   F
 10.5090421629266260 16.9641960152839708 15.9883937054899636   F   F   F
 11.8887140751342972  0.7492031198793703 15.7499753415552810   F   F   F
  5.7181420211999905  6.7122207597999912 11.3164752744000499   F   F   F
 15.4169308193000347  5.9800464415999537 12.1068679175000042   F   F   F
 10.7774834870564700  5.7740659113317472 14.2183525496497740   F   F   F
  7.8966148665999425 10.6904885835000201 10.7286948165000329   F   F   F
 18.8010883034653169  8.6360840142788380 15.5860053703636172   F   F   F
  1.6202907672999860 16.2884397429000032 12.9176056502999668   F   F   F
  4.9610307546999834  2.6176909816000271 10.0435341450000184   F   F   F
  1.8315324526999137  8.9516191424000073 13.2988686007999828   F   F   F
 13.0534399504000671 15.4454568869004145 12.7623473945000239   F   F   F
 16.8078194886004475 10.5933418199503766 16.3898748259603337   F   F   F
  6.7106632128999850  3.8073033846000706 12.3424431752000618   F   F   F
  2.0615572267811317 11.3338329746699156 15.2588506719298724   F   F   F
  8.2533532824875167  0.3562306613405692 15.6040442043554766   F   F   F
 11.3702693234048269  8.7362094940362542 15.3572424708553132   F   F   F
 10.8969207354573978  8.6789521497649602 18.5932802396911825   T   T   T
