 C  H  O Si  W                          
   1.0000000000000000     
    23.4112945954000011    0.0000000000000000    0.0000000000000000
     0.0000000000000000   18.1212369513999967    0.0000000000000000
     0.0000000000000000    0.0000000000000000   26.8833665072999999
   C    H    O    Si   W 
     5    54   154    65     1
Selective dynamics
Direct
  0.4225865917439628  0.5212136902300483  0.7539450652100769   T   T   T
  0.4312004052199739  0.4439032262407380  0.7759500345941475   T   T   T
  0.4521910615744332  0.4077420325764778  0.7271450545445410   T   T   T
  0.3791668325984899  0.4087646281441619  0.8014413076349761   T   T   T
  0.4917535551498046  0.3405882348526017  0.7295833308527109   T   T   T
  0.7624499277784228  0.1034263831339830  0.6515623189408984   T   T   T
  0.9264276758305172  0.2786689626896504  0.3563349293400009   F   F   F
  0.7933396966457948  0.2072788970903972  0.3734565163880745   F   F   F
  0.9745391126846457  0.9436086004040121  0.3253027906056829   F   F   F
  0.6257326647317640  0.9634728498404783  0.3752311999972449   F   F   F
  0.8205383985802470  0.9950066634445136  0.3689926296547128   F   F   F
  0.7499930738025071  0.1411787556975952  0.4580381926778543   F   F   F
  0.9153626506572794  0.2493846176052743  0.5102034423544921   T   T   T
  0.5834928632346532  0.3042635460806125  0.3059271726651787   F   F   F
  0.8926770385296849  0.3348823711967990  0.6158725995365294   T   T   T
  0.6209184068612132  0.3638854472800759  0.6071606904700891   T   T   T
  0.5940503625487077  0.8708432136170010  0.5779163119067212   T   T   T
  0.0331579590031783  0.3368338328961433  0.6537465100838856   T   T   T
  0.9352705076293475  0.4195142256010627  0.4541014552468710   F   F   F
  0.7461383787264921  0.5303119922813835  0.4224881911837883   F   F   F
  0.8066499208955362  0.3891287108220265  0.6393810311505581   T   T   T
  0.5911020173621253  0.5686828265718304  0.3780347436188976   F   F   F
  0.7184337867332147  0.6459327856642645  0.3834605945055571   F   F   F
  0.8411529141822527  0.5424265959195793  0.4195961671555111   F   F   F
  0.0047645486004839  0.6037981490802551  0.3577783004107076   F   F   F
  0.8283586992797254  0.7123566732624553  0.4679422553080954   F   F   F
  0.8727398313695028  0.5962944329428298  0.7232553906697347   T   T   T
  0.5199903139142066  0.9855647614121708  0.4217030704774842   F   F   F
  0.2230945721141921  0.9801548350444023  0.3932050219465495   F   F   F
  0.2163736907012108  0.2378514578535444  0.3192303272980936   F   F   F
  0.1575010503146004  0.3298062298577378  0.2789829167401123   F   F   F
  0.3415468765222016  0.1555857053997727  0.3307727584112428   F   F   F
  0.2227158616176865  0.0457589258737627  0.3227384335196248   F   F   F
  0.5113128441733835  0.8267961414022715  0.5469887912201169   T   T   T
  0.3694992460901092  0.2351058073331518  0.6475223960535830   T   T   T
  0.2433993128616225  0.0942272855436346  0.5989559038324582   T   T   T
  0.3153809712620799  0.4871364644243030  0.4424346656312608   F   F   F
  0.4089561836824345  0.4387348585376643  0.4056905975982730   F   F   F
  0.3984995031771135  0.7931136075007075  0.3887867966224334   F   F   F
  0.2442023570718419  0.6554300786283989  0.2943268807443218   F   F   F
  0.3117413815096768  0.4184757133874442  0.3692576443915385   F   F   F
  0.4054742948373828  0.5842796533148373  0.3388198885480591   F   F   F
  0.1393576205410270  0.4879736464301843  0.3519294596467617   F   F   F
  0.5932693450847850  0.6979871282750807  0.3523979868156601   F   F   F
  0.4690068300988983  0.8614274690886390  0.4438283837725479   F   F   F
  0.1224794738194701  0.3265280943507565  0.6139083490698608   T   T   T
  0.0730819697763464  0.6642361173985443  0.6462026800009696   T   T   T
  0.2408694684309905  0.3928667286751490  0.6825372786827510   T   T   T
  0.2486985216428711  0.8155983599095693  0.6703492855567162   T   T   T
  0.4297622292609501  0.5695185874617211  0.7779748799442132   T   T   T
  0.3809720917907203  0.5265568780510417  0.7351467820339036   T   T   T
  0.4673896152516919  0.4453156164188057  0.8022397565980290   T   T   T
  0.4145387217974595  0.3968842304725866  0.7032133718550843   T   T   T
  0.3665044729111724  0.4415343307376115  0.8341849880692664   T   T   T
  0.3426146026117070  0.4071390646102840  0.7756066047637397   T   T   T
  0.3882976218142280  0.3520896997027475  0.8139671187340339   T   T   T
  0.5054416742772343  0.3221889485345223  0.6924582304909560   T   T   T
  0.5301170832460976  0.3529156429731966  0.7517435952312300   T   T   T
  0.4693469296978764  0.2939856350944081  0.7475081334661317   T   T   T
  0.3689417337474836  0.6483550972712351  0.4390000177989322   F   F   F
  0.3468156499340012  0.5040338677980998  0.4203881275781143   F   F   F
  0.8620204967525252  0.5649171461864742  0.6955978250514250   T   T   T
  0.3486617194504585  0.9604960330609152  0.5307140209801214   T   T   T
  0.0332584963580759  0.9322686541747651  0.5285277965785251   T   T   T
  0.6363554822520214  0.0788685454107210  0.4893766723794641   F   F   F
  0.0686461464337711  0.0522654213252736  0.3951107345583225   F   F   F
  0.4518995423849290  0.1295623246799735  0.4205972814427668   F   F   F
  0.8058841492391053  0.2136501795425687  0.4831666074103040   F   F   F
  0.9739674992475784  0.1818288690641991  0.5985906296547222   T   T   T
  0.2747652928370670  0.2991728708608434  0.4485122250900346   F   F   F
  0.5563541661493261  0.7750912910288292  0.4417510122690658   F   F   F
  0.3909713117378508  0.9747108678272320  0.6200623901884224   T   T   T
  0.1775172398119551  0.3499684491797339  0.4052731245300478   F   F   F
  0.8669363964892653  0.6848657096327377  0.6375383451503828   T   T   T
  0.8656960101805780  0.9671769319282575  0.4670384592975196   F   F   F
  0.3010471365425786  0.7609368347250012  0.4579252567998537   F   F   F
  0.4216109455749333  0.2612522168655929  0.3795963030273342   F   F   F
  0.8112097024950583  0.4644478274928926  0.5203439809853272   T   T   T
  0.9837565331800923  0.0725798867646451  0.5211379582962592   T   T   T
  0.5048576432186787  0.4666417661797410  0.6325361965565129   T   T   T
  0.0345364060712328  0.9199477615026765  0.4294052572495062   F   F   F
  0.9630365418976012  0.3031953077946739  0.3512576249606170   F   F   F
  0.0696266904018330  0.3361057653809567  0.3763717815531962   F   F   F
  0.2082956574839798  0.7286442940463758  0.3953601014000157   F   F   F
  0.0389012628664673  0.4191019154304030  0.4991087535393461   F   F   F
  0.2397192758018012  0.2868562509079231  0.5875396463836616   T   T   T
  0.3984623986479570  0.1969492129674302  0.6455202766933704   T   T   T
  0.4543772016508246  0.5659633307622421  0.5794171421656892   T   T   T
  0.9103878455426675  0.7491439787444375  0.5574911596467667   T   T   T
  0.8691272712828919  0.1080433422095268  0.4422783307318099   F   F   F
  0.5725767945286506  0.6673318527169130  0.3761317316733468   F   F   F
  0.1424265590487721  0.1591254986639967  0.3759722435750490   F   F   F
  0.3510902934355847  0.7653499009914929  0.6064028638546828   T   T   T
  0.9109960497481637  0.8450475712761403  0.4831796236075121   F   F   F
  0.0613380104439898  0.5368717056838861  0.4422534820284341   F   F   F
  0.7083390276613883  0.5551665516973827  0.4199576800001736   F   F   F
  0.0754872572295611  0.8168068047449992  0.4829941554854784   F   F   F
  0.7004647711503367  0.8275557148620294  0.4326352913293690   F   F   F
  0.7302784803916669  0.0492420166773735  0.5429409760388793   T   T   T
  0.9198216560914576  0.3021684855914965  0.6323738481636978   T   T   T
  0.7355666425551629  0.8527206595256992  0.6130018893748643   T   T   T
  0.6251219543397468  0.5273940019123060  0.4863787091564404   F   F   F
  0.5565732986914895  0.6297030402341477  0.4672494240254110   F   F   F
  0.4252928390855328  0.2485650206910034  0.5557206842179528   T   T   T
  0.9782900937866188  0.7282436334557403  0.4767956400891720   F   F   F
  0.6546935617175860  0.5941470800506837  0.6329635034578222   T   T   T
  0.3964662811668915  0.7478987178591753  0.5149577714928578   T   T   T
  0.6026900684925138  0.5176654516222357  0.3856709925442061   F   F   F
  0.7211805383116286  0.6302645533806719  0.5570058247211345   T   T   T
  0.1486548500954245  0.3663659787828155  0.6222490871462962   T   T   T
  0.0663597230992648  0.5482638487323639  0.5420954275131019   T   T   T
  0.8187971563155402  0.8844884136944760  0.5364399320764920   T   T   T
  0.8282155306144290  0.3553851425745194  0.4519033357708793   F   F   F
  0.5276157691807887  0.2965374825173736  0.5321709791265310   T   T   T
  0.7377145769293195  0.4987987752508991  0.5960035358628709   T   T   T
  0.5574339360525684  0.1724311050277691  0.3949085375269945   F   F   F
  0.8059640829434258  0.2564125703207623  0.3832928600033014   F   F   F
  0.2374462167159379  0.9532507503228373  0.5079195554207132   F   F   F
  0.6932314431914511  0.7756931965021878  0.5417434374900524   T   T   T
  0.9235912597724900  0.9499160018810093  0.5529148407677308   T   T   T
  0.5257372223071499  0.3177811194315368  0.3985559351687087   F   F   F
  0.4671793106131744  0.9933237506375938  0.5465230600967284   T   T   T
  0.8377398700428758  0.0948012188581794  0.5396796810584195   T   T   T
  0.5379032529954273  0.1164174891624583  0.4862370923690094   F   F   F
  0.3501934424681892  0.1866087322829628  0.4396363938456389   F   F   F
  0.0117603227697671  0.9624138997505156  0.3352437574830063   F   F   F
  0.4531018925084371  0.5993754698404308  0.6736470414296294   T   T   T
  0.6549652215052149  0.9253975041590294  0.3792282539811964   F   F   F
  0.0762933429000086  0.6860262572550013  0.4358810225764742   F   F   F
  0.4546593470277575  0.4057181178422734  0.5528284341208338   T   T   T
  0.7192194365794862  0.7004208511946786  0.3795829994963285   F   F   F
  0.4533268148116204  0.7086188499909715  0.5978622981151267   T   T   T
  0.7525510590585540  0.7093245752524027  0.4762954835743187   F   F   F
  0.7792120204167486  0.1209588917113880  0.6207892765526801   T   T   T
  0.9932746154998640  0.3080134732727942  0.4484029789284989   F   F   F
  0.5375466374893505  0.5089726608213446  0.5363533813768164   T   T   T
  0.8167775851685377  0.4990617343205841  0.4234422052650615   F   F   F
  0.2364441272323436  0.1464746967446667  0.6056542367255049   T   T   T
  0.2035333056693176  0.8307013159295948  0.4705336293601903   F   F   F
  0.2399049540041202  0.5592696105839143  0.5226912933510909   T   T   T
  0.0611449528940758  0.6252139837120704  0.6238698996480787   T   T   T
  0.0460740721579711  0.6023466920262663  0.3541786312221902   F   F   F
  0.8008999948330862  0.9786473070338380  0.6054900908827654   T   T   T
  0.5379909096643800  0.0276974916307395  0.4045027517534763   F   F   F
  0.6069729609929662  0.3136620563737014  0.6044237807021154   T   T   T
  0.8615461074870723  0.0040808493425857  0.3692063291070653   F   F   F
  0.0949113079349573  0.1490228352536036  0.4670823258906296   F   F   F
  0.1715126342853361  0.2043968402139111  0.5309732481331085   T   T   T
  0.6409886548370807  0.7044387200849300  0.4548155821771758   F   F   F
  0.4367877833594562  0.4097684807507775  0.3864132536704119   F   F   F
  0.5737690097084600  0.0587540202371545  0.5713150099083615   T   T   T
  0.1514377461550822  0.5934080233507046  0.3889583608347777   F   F   F
  0.2677397900298786  0.6023375312719352  0.3923062966030031   F   F   F
  0.4402584599838875  0.3221981821637669  0.4703244327181508   F   F   F
  0.2380096658428670  0.1585111292073265  0.4299011866524154   F   F   F
  0.0732774966270449  0.1493372879705574  0.5624454969262641   T   T   T
  0.8454551973291387  0.5455221961325434  0.5990862336653920   T   T   T
  0.6211794283797261  0.2799398764502143  0.4109054511829981   F   F   F
  0.6026669933268991  0.8915266656811696  0.4672234595428861   F   F   F
  0.0313853911711632  0.1952898289720011  0.3889918752683101   F   F   F
  0.6075761014969768  0.1949228690365973  0.5478268132494529   T   T   T
  0.1327997262830110  0.9383546444265392  0.4794870772378772   F   F   F
  0.0801040355538661  0.2801802235202041  0.5119330382532711   T   T   T
  0.3719151120061399  0.1068378693304735  0.5692442824294017   T   T   T
  0.0664812678059005  0.6964715441896164  0.5355707315660535   T   T   T
  0.6664883802395920  0.4153848774500162  0.4300115561107631   F   F   F
  0.7999774379983007  0.7297515758648012  0.5639993940059159   T   T   T
  0.7038385585664102  0.9572084331836876  0.4701845621740759   F   F   F
  0.6005351239569368  0.6368652027694428  0.5521759109038981   T   T   T
  0.7228402998194312  0.2936846539655704  0.4516681052539582   F   F   F
  0.9774833026531710  0.3142537435948383  0.5471725591553730   T   T   T
  0.1582946009450761  0.6298947271822171  0.5706988232634477   T   T   T
  0.6333338447636834  0.3267830791508146  0.5078007023299378   F   F   F
  0.8218779908176784  0.3974723909626038  0.6062574917449862   T   T   T
  0.9585781980424741  0.0272430442537654  0.4169530046787955   F   F   F
  0.2820465448099905  0.1953182946263119  0.5186302887631665   T   T   T
  0.2492575497062219  0.4430328890313291  0.4610556955705079   F   F   F
  0.2734659514538472  0.8504383582216662  0.5684080609004399   T   T   T
  0.2036681492717136  0.6855731693326916  0.4868887178860462   F   F   F
  0.1471234534025641  0.4760698765562736  0.4925449251270066   F   F   F
  0.2249467667799525  0.4234892593333338  0.5568767866630725   T   T   T
  0.9114169782388899  0.4527445980703959  0.4737188145108959   F   F   F
  0.8697881760712605  0.7045601104075629  0.4641535209108483   F   F   F
  0.7381202077648155  0.0928346184210156  0.4452296472671975   F   F   F
  0.2221834364137223  0.9297811896885051  0.4079468165165281   F   F   F
  0.2550082556807259  0.4020083666627883  0.6492241891342667   T   T   T
  0.6311149551315963  0.8832919508361309  0.5931897583751844   T   T   T
  0.4102232652989244  0.7890623918912638  0.4234373851432949   F   F   F
  0.9177713526838360  0.1960382935517870  0.5082451459005242   F   F   F
  0.1325470583719763  0.4435361137187215  0.3322726622007863   F   F   F
  0.1551476808383612  0.3035232550984901  0.3105604161752922   F   F   F
  0.3730051452223293  0.1309070431484400  0.3479534200993726   F   F   F
  0.0355379978892149  0.2931872437505777  0.6328923193767145   T   T   T
  0.5726892607312024  0.2568681912710389  0.3200996781806822   F   F   F
  0.2461800862244523  0.7714770492969641  0.6500242828640952   T   T   T
  0.2073742988503469  0.6484050495897407  0.3103690611938177   F   F   F
  0.2753744117323080  0.3921912989361900  0.3673758273212613   F   F   F
  0.3653508124399352  0.5975866320683707  0.3422207943191111   F   F   F
  0.2263808501748272  0.0561808239321806  0.3581188824802055   F   F   F
  0.2412033349838580  0.1960782275144553  0.3293429668079639   F   F   F
  0.5012729261245497  0.8923016217637851  0.4548416832162587   F   F   F
  0.5501584737973564  0.8280715631238259  0.5343675216878215   T   T   T
  0.5455772979025552  0.6462715014114143  0.6327199607257588   T   T   T
  0.4782953600846824  0.1240623778833566  0.5967031026876957   T   T   T
  0.2621451344417845  0.6952982530484392  0.5686208020428222   T   T   T
  0.4416560205121419  0.8500336665750975  0.5806781241889614   T   T   T
  0.7661994556008207  0.6173352346942318  0.6495978978232299   T   T   T
  0.8454524183409664  0.8321607941456260  0.6227023464921490   T   T   T
  0.6406896841791414  0.7399097315193655  0.6215643477903812   T   T   T
  0.0079931622902576  0.0332221399448270  0.6029499108941129   T   T   T
  0.2837333569625436  0.0033467289598965  0.5935710826017905   T   T   T
  0.5025563253036681  0.9732515881421298  0.6288008392927262   T   T   T
  0.5475544629165109  0.5178437364916804  0.7367173277184736   T   T   T
  0.0832252792112911  0.6064203006159019  0.4064130837160320   F   F   F
  0.4093614459237581  0.7678411440930979  0.5738936571737596   T   T   T
  0.8417638189206400  0.4414531150138714  0.4678389696388976   F   F   F
  0.0170894936360568  0.9904820387337452  0.3936113541928137   F   F   F
  0.0147002065988957  0.2841902735343993  0.3910814136036507   F   F   F
  0.0095590549433333  0.1147332030884349  0.5724189869954087   T   T   T
  0.6104262709010936  0.6580923331963281  0.6106591905635834   T   T   T
  0.2140332755480630  0.4763346715061776  0.5096758638591565   T   T   T
  0.9150621277607272  0.7555609372428762  0.4962545438487922   F   F   F
  0.5205785424525260  0.1104556259083296  0.4259865881079392   F   F   F
  0.4184253552229764  0.1711966499047917  0.5896512220218533   T   T   T
  0.0834525281222085  0.1391720768766334  0.4069808717903314   F   F   F
  0.7018979344879455  0.0448462543081121  0.4873230277072054   F   F   F
  0.6650593546056740  0.8980374632893202  0.4374764361266443   F   F   F
  0.6500987439622605  0.5040270568778311  0.4301508871204760   F   F   F
  0.1984606475206618  0.9124822312100775  0.4639906909803457   F   F   F
  0.2155332820102823  0.3677383894639345  0.6039853075029444   T   T   T
  0.6741147779488453  0.8134300715539665  0.5948413689445921   T   T   T
  0.2166240578942686  0.6420748332898712  0.5386760742705741   T   T   T
  0.3687891183512946  0.7351277331247985  0.4592092972079129   F   F   F
  0.7976928191672100  0.8884500177696827  0.5955424236554943   T   T   T
  0.8796901919848243  0.9121985371208359  0.5119420724272339   T   T   T
  0.5775311367369924  0.5757609467162917  0.5127670126854404   T   T   T
  0.5897600911235997  0.1151404298950095  0.5252769919441862   T   T   T
  0.8581223411646519  0.1521132321647087  0.4951759473310489   F   F   F
  0.8361127012854908  0.6042444494769692  0.6456840289843830   T   T   T
  0.1337385207486648  0.3603189034452470  0.3568722791356791   F   F   F
  0.7906552882913616  0.2799392454557648  0.4418726542293072   F   F   F
  0.3991760967689615  0.1774948437530099  0.3960031981861079   F   F   F
  0.8565261317280942  0.7504213743379365  0.5964986305210412   T   T   T
  0.2830717476881895  0.9356224063071794  0.5496818325430910   T   T   T
  0.0230747322536402  0.3304475144031116  0.5022455100715746   F   F   F
  0.5745593847912573  0.6954900807820579  0.4355643604055430   F   F   F
  0.2302409542041772  0.7526004963776103  0.4519695445397645   F   F   F
  0.5940180964959745  0.2834244371736374  0.5480499577393088   T   T   T
  0.9759308304207441  0.2725352888068514  0.6026265682469159   T   T   T
  0.8889063590224922  0.0254089987032842  0.4242001869335610   F   F   F
  0.1047946162136518  0.1953295316939681  0.5178244708356861   T   T   T
  0.0481456608521569  0.7330370932417907  0.4826301941714348   F   F   F
  0.2320382057758811  0.2065774871466882  0.5610205580326828   T   T   T
  0.5614078070497825  0.2577852695391769  0.3812261074005363   F   F   F
  0.4768134433419082  0.6305246015894925  0.6200919189415575   T   T   T
  0.2819181621353012  0.7711113102924563  0.5977026266518077   T   T   T
  0.2085008252580423  0.6433998443080498  0.3717945352858223   F   F   F
  0.7409296471054218  0.7104079249472735  0.5359601941823481   T   T   T
  0.9863916397202138  0.9904362900891790  0.5503243739295398   T   T   T
  0.7031045577904180  0.7368181529665634  0.4342603982179796   F   F   F
  0.7880332238435799  0.0594147338331623  0.5767504035222105   T   T   T
  0.4563138979678243  0.3284515948311224  0.4092878915485585   F   F   F
  0.4486243741927446  0.9383023154752281  0.5945099236503969   T   T   T
  0.5080066103237703  0.0426790549222274  0.5865238149285832   T   T   T
  0.2442471516429308  0.3704063236853941  0.4209471039025985   F   F   F
  0.6585253436744694  0.3300021106527140  0.4503479098948588   F   F   F
  0.4608182556967120  0.3188910199919248  0.5290192459007094   T   T   T
  0.3372993678081997  0.5899425415699397  0.3990830096962270   F   F   F
  0.8042425321902863  0.4768767712599389  0.5799499303203961   T   T   T
  0.0692097893475037  0.8988591555082337  0.4805055068825652   F   F   F
  0.2119075788177369  0.1444543211161857  0.3735965933534686   F   F   F
  0.0782328565913559  0.4939849948658406  0.4946876202126234   F   F   F
  0.5575701889191933  0.8523400984338849  0.4747302534090920   F   F   F
  0.7191357098396005  0.5845895239452378  0.6098213379252854   T   T   T
  0.2866421241915660  0.2101017383532309  0.4591107728955208   F   F   F
  0.0880762114196852  0.6253550744953267  0.5677843017512808   T   T   T
  0.3527421936557423  0.0211531638734132  0.5786367063786511   T   T   T
  0.4858845178867972  0.4830089092998581  0.5740047718936798   T   T   T
  0.4893453465738261  0.5084939957945918  0.6983132861962214   T   T   T

  0.00000000E+00  0.00000000E+00  0.00000000E+00
  0.00000000E+00  0.00000000E+00  0.00000000E+00
  0.00000000E+00  0.00000000E+00  0.00000000E+00
  0.00000000E+00  0.00000000E+00  0.00000000E+00
  0.00000000E+00  0.00000000E+00  0.00000000E+00
  0.00000000E+00  0.00000000E+00  0.00000000E+00
  0.00000000E+00  0.00000000E+00  0.00000000E+00
  0.00000000E+00  0.00000000E+00  0.00000000E+00
  0.00000000E+00  0.00000000E+00  0.00000000E+00
  0.00000000E+00  0.00000000E+00  0.00000000E+00
  0.00000000E+00  0.00000000E+00  0.00000000E+00
  0.00000000E+00  0.00000000E+00  0.00000000E+00
  0.00000000E+00  0.00000000E+00  0.00000000E+00
  0.00000000E+00  0.00000000E+00  0.00000000E+00
  0.00000000E+00  0.00000000E+00  0.00000000E+00
  0.00000000E+00  0.00000000E+00  0.00000000E+00
  0.00000000E+00  0.00000000E+00  0.00000000E+00
  0.00000000E+00  0.00000000E+00  0.00000000E+00
  0.00000000E+00  0.00000000E+00  0.00000000E+00
  0.00000000E+00  0.00000000E+00  0.00000000E+00
  0.00000000E+00  0.00000000E+00  0.00000000E+00
  0.00000000E+00  0.00000000E+00  0.00000000E+00
  0.00000000E+00  0.00000000E+00  0.00000000E+00
  0.00000000E+00  0.00000000E+00  0.00000000E+00
  0.00000000E+00  0.00000000E+00  0.00000000E+00
  0.00000000E+00  0.00000000E+00  0.00000000E+00
  0.00000000E+00  0.00000000E+00  0.00000000E+00
  0.00000000E+00  0.00000000E+00  0.00000000E+00
  0.00000000E+00  0.00000000E+00  0.00000000E+00
  0.00000000E+00  0.00000000E+00  0.00000000E+00
  0.00000000E+00  0.00000000E+00  0.00000000E+00
  0.00000000E+00  0.00000000E+00  0.00000000E+00
  0.00000000E+00  0.00000000E+00  0.00000000E+00
  0.00000000E+00  0.00000000E+00  0.00000000E+00
  0.00000000E+00  0.00000000E+00  0.00000000E+00
  0.00000000E+00  0.00000000E+00  0.00000000E+00
  0.00000000E+00  0.00000000E+00  0.00000000E+00
  0.00000000E+00  0.00000000E+00  0.00000000E+00
  0.00000000E+00  0.00000000E+00  0.00000000E+00
  0.00000000E+00  0.00000000E+00  0.00000000E+00
  0.00000000E+00  0.00000000E+00  0.00000000E+00
  0.00000000E+00  0.00000000E+00  0.00000000E+00
  0.00000000E+00  0.00000000E+00  0.00000000E+00
  0.00000000E+00  0.00000000E+00  0.00000000E+00
  0.00000000E+00  0.00000000E+00  0.00000000E+00
  0.00000000E+00  0.00000000E+00  0.00000000E+00
  0.00000000E+00  0.00000000E+00  0.00000000E+00
  0.00000000E+00  0.00000000E+00  0.00000000E+00
  0.00000000E+00  0.00000000E+00  0.00000000E+00
  0.00000000E+00  0.00000000E+00  0.00000000E+00
  0.00000000E+00  0.00000000E+00  0.00000000E+00
  0.00000000E+00  0.00000000E+00  0.00000000E+00
  0.00000000E+00  0.00000000E+00  0.00000000E+00
  0.00000000E+00  0.00000000E+00  0.00000000E+00
  0.00000000E+00  0.00000000E+00  0.00000000E+00
  0.00000000E+00  0.00000000E+00  0.00000000E+00
  0.00000000E+00  0.00000000E+00  0.00000000E+00
  0.00000000E+00  0.00000000E+00  0.00000000E+00
  0.00000000E+00  0.00000000E+00  0.00000000E+00
  0.00000000E+00  0.00000000E+00  0.00000000E+00
  0.00000000E+00  0.00000000E+00  0.00000000E+00
  0.00000000E+00  0.00000000E+00  0.00000000E+00
  0.00000000E+00  0.00000000E+00  0.00000000E+00
  0.00000000E+00  0.00000000E+00  0.00000000E+00
  0.00000000E+00  0.00000000E+00  0.00000000E+00
  0.00000000E+00  0.00000000E+00  0.00000000E+00
  0.00000000E+00  0.00000000E+00  0.00000000E+00
  0.00000000E+00  0.00000000E+00  0.00000000E+00
  0.00000000E+00  0.00000000E+00  0.00000000E+00
  0.00000000E+00  0.00000000E+00  0.00000000E+00
  0.00000000E+00  0.00000000E+00  0.00000000E+00
  0.00000000E+00  0.00000000E+00  0.00000000E+00
  0.00000000E+00  0.00000000E+00  0.00000000E+00
  0.00000000E+00  0.00000000E+00  0.00000000E+00
  0.00000000E+00  0.00000000E+00  0.00000000E+00
  0.00000000E+00  0.00000000E+00  0.00000000E+00
  0.00000000E+00  0.00000000E+00  0.00000000E+00
  0.00000000E+00  0.00000000E+00  0.00000000E+00
  0.00000000E+00  0.00000000E+00  0.00000000E+00
  0.00000000E+00  0.00000000E+00  0.00000000E+00
  0.00000000E+00  0.00000000E+00  0.00000000E+00
  0.00000000E+00  0.00000000E+00  0.00000000E+00
  0.00000000E+00  0.00000000E+00  0.00000000E+00
  0.00000000E+00  0.00000000E+00  0.00000000E+00
  0.00000000E+00  0.00000000E+00  0.00000000E+00
  0.00000000E+00  0.00000000E+00  0.00000000E+00
  0.00000000E+00  0.00000000E+00  0.00000000E+00
  0.00000000E+00  0.00000000E+00  0.00000000E+00
  0.00000000E+00  0.00000000E+00  0.00000000E+00
  0.00000000E+00  0.00000000E+00  0.00000000E+00
  0.00000000E+00  0.00000000E+00  0.00000000E+00
  0.00000000E+00  0.00000000E+00  0.00000000E+00
  0.00000000E+00  0.00000000E+00  0.00000000E+00
  0.00000000E+00  0.00000000E+00  0.00000000E+00
  0.00000000E+00  0.00000000E+00  0.00000000E+00
  0.00000000E+00  0.00000000E+00  0.00000000E+00
  0.00000000E+00  0.00000000E+00  0.00000000E+00
  0.00000000E+00  0.00000000E+00  0.00000000E+00
  0.00000000E+00  0.00000000E+00  0.00000000E+00
  0.00000000E+00  0.00000000E+00  0.00000000E+00
  0.00000000E+00  0.00000000E+00  0.00000000E+00
  0.00000000E+00  0.00000000E+00  0.00000000E+00
  0.00000000E+00  0.00000000E+00  0.00000000E+00
  0.00000000E+00  0.00000000E+00  0.00000000E+00
  0.00000000E+00  0.00000000E+00  0.00000000E+00
  0.00000000E+00  0.00000000E+00  0.00000000E+00
  0.00000000E+00  0.00000000E+00  0.00000000E+00
  0.00000000E+00  0.00000000E+00  0.00000000E+00
  0.00000000E+00  0.00000000E+00  0.00000000E+00
  0.00000000E+00  0.00000000E+00  0.00000000E+00
  0.00000000E+00  0.00000000E+00  0.00000000E+00
  0.00000000E+00  0.00000000E+00  0.00000000E+00
  0.00000000E+00  0.00000000E+00  0.00000000E+00
  0.00000000E+00  0.00000000E+00  0.00000000E+00
  0.00000000E+00  0.00000000E+00  0.00000000E+00
  0.00000000E+00  0.00000000E+00  0.00000000E+00
  0.00000000E+00  0.00000000E+00  0.00000000E+00
  0.00000000E+00  0.00000000E+00  0.00000000E+00
  0.00000000E+00  0.00000000E+00  0.00000000E+00
  0.00000000E+00  0.00000000E+00  0.00000000E+00
  0.00000000E+00  0.00000000E+00  0.00000000E+00
  0.00000000E+00  0.00000000E+00  0.00000000E+00
  0.00000000E+00  0.00000000E+00  0.00000000E+00
  0.00000000E+00  0.00000000E+00  0.00000000E+00
  0.00000000E+00  0.00000000E+00  0.00000000E+00
  0.00000000E+00  0.00000000E+00  0.00000000E+00
  0.00000000E+00  0.00000000E+00  0.00000000E+00
  0.00000000E+00  0.00000000E+00  0.00000000E+00
  0.00000000E+00  0.00000000E+00  0.00000000E+00
  0.00000000E+00  0.00000000E+00  0.00000000E+00
  0.00000000E+00  0.00000000E+00  0.00000000E+00
  0.00000000E+00  0.00000000E+00  0.00000000E+00
  0.00000000E+00  0.00000000E+00  0.00000000E+00
  0.00000000E+00  0.00000000E+00  0.00000000E+00
  0.00000000E+00  0.00000000E+00  0.00000000E+00
  0.00000000E+00  0.00000000E+00  0.00000000E+00
  0.00000000E+00  0.00000000E+00  0.00000000E+00
  0.00000000E+00  0.00000000E+00  0.00000000E+00
  0.00000000E+00  0.00000000E+00  0.00000000E+00
  0.00000000E+00  0.00000000E+00  0.00000000E+00
  0.00000000E+00  0.00000000E+00  0.00000000E+00
  0.00000000E+00  0.00000000E+00  0.00000000E+00
  0.00000000E+00  0.00000000E+00  0.00000000E+00
  0.00000000E+00  0.00000000E+00  0.00000000E+00
  0.00000000E+00  0.00000000E+00  0.00000000E+00
  0.00000000E+00  0.00000000E+00  0.00000000E+00
  0.00000000E+00  0.00000000E+00  0.00000000E+00
  0.00000000E+00  0.00000000E+00  0.00000000E+00
  0.00000000E+00  0.00000000E+00  0.00000000E+00
  0.00000000E+00  0.00000000E+00  0.00000000E+00
  0.00000000E+00  0.00000000E+00  0.00000000E+00
  0.00000000E+00  0.00000000E+00  0.00000000E+00
  0.00000000E+00  0.00000000E+00  0.00000000E+00
  0.00000000E+00  0.00000000E+00  0.00000000E+00
  0.00000000E+00  0.00000000E+00  0.00000000E+00
  0.00000000E+00  0.00000000E+00  0.00000000E+00
  0.00000000E+00  0.00000000E+00  0.00000000E+00
  0.00000000E+00  0.00000000E+00  0.00000000E+00
  0.00000000E+00  0.00000000E+00  0.00000000E+00
  0.00000000E+00  0.00000000E+00  0.00000000E+00
  0.00000000E+00  0.00000000E+00  0.00000000E+00
  0.00000000E+00  0.00000000E+00  0.00000000E+00
  0.00000000E+00  0.00000000E+00  0.00000000E+00
  0.00000000E+00  0.00000000E+00  0.00000000E+00
  0.00000000E+00  0.00000000E+00  0.00000000E+00
  0.00000000E+00  0.00000000E+00  0.00000000E+00
  0.00000000E+00  0.00000000E+00  0.00000000E+00
  0.00000000E+00  0.00000000E+00  0.00000000E+00
  0.00000000E+00  0.00000000E+00  0.00000000E+00
  0.00000000E+00  0.00000000E+00  0.00000000E+00
  0.00000000E+00  0.00000000E+00  0.00000000E+00
  0.00000000E+00  0.00000000E+00  0.00000000E+00
  0.00000000E+00  0.00000000E+00  0.00000000E+00
  0.00000000E+00  0.00000000E+00  0.00000000E+00
  0.00000000E+00  0.00000000E+00  0.00000000E+00
  0.00000000E+00  0.00000000E+00  0.00000000E+00
  0.00000000E+00  0.00000000E+00  0.00000000E+00
  0.00000000E+00  0.00000000E+00  0.00000000E+00
  0.00000000E+00  0.00000000E+00  0.00000000E+00
  0.00000000E+00  0.00000000E+00  0.00000000E+00
  0.00000000E+00  0.00000000E+00  0.00000000E+00
  0.00000000E+00  0.00000000E+00  0.00000000E+00
  0.00000000E+00  0.00000000E+00  0.00000000E+00
  0.00000000E+00  0.00000000E+00  0.00000000E+00
  0.00000000E+00  0.00000000E+00  0.00000000E+00
  0.00000000E+00  0.00000000E+00  0.00000000E+00
  0.00000000E+00  0.00000000E+00  0.00000000E+00
  0.00000000E+00  0.00000000E+00  0.00000000E+00
  0.00000000E+00  0.00000000E+00  0.00000000E+00