 C  H  O Si  W                          
   1.0000000000000000     
    23.4112945954000011    0.0000000000000000    0.0000000000000000
     0.0000000000000000   18.1212369513999967    0.0000000000000000
     0.0000000000000000    0.0000000000000000   26.8833665072999999
   C    H    O    Si   W 
     5    54   154    65     1
Selective dynamics
Direct
  0.5110993341161761  0.5036778243200243  0.7604785966068629   T   T   T
  0.4452591080966317  0.4989482364434147  0.7766610423533742   T   T   T
  0.3990815924460246  0.4859671860594327  0.7321478058387468   T   T   T
  0.4287222898460708  0.5694058390305591  0.8053129066578174   T   T   T
  0.3571130387089804  0.4236743897096532  0.7416525702550184   T   T   T
  0.7611930750725769  0.1032608293370680  0.6511155460466862   T   T   T
  0.9264276758305172  0.2786689626896504  0.3563349293400009   F   F   F
  0.7933396966457948  0.2072788970903972  0.3734565163880745   F   F   F
  0.9745391126846457  0.9436086004040121  0.3253027906056829   F   F   F
  0.6257326647317640  0.9634728498404783  0.3752311999972449   F   F   F
  0.8205383985802470  0.9950066634445136  0.3689926296547128   F   F   F
  0.7499930738025071  0.1411787556975952  0.4580381926778543   F   F   F
  0.9154843747650465  0.2494650042385927  0.5091488025614783   T   T   T
  0.5834928632346532  0.3042635460806125  0.3059271726651787   F   F   F
  0.8910212459568125  0.3348288729350721  0.6154269842136739   T   T   T
  0.5869878113053671  0.3593029948757141  0.6144867908408567   T   T   T
  0.5934387035684970  0.8706520040526100  0.5783296376110674   T   T   T
  0.0336083089181523  0.3389722558107750  0.6505344531707021   T   T   T
  0.9352705076293475  0.4195142256010627  0.4541014552468710   F   F   F
  0.7461383787264921  0.5303119922813835  0.4224881911837883   F   F   F
  0.8007434655414200  0.3847784698282146  0.6363934954011563   T   T   T
  0.5911020173621253  0.5686828265718304  0.3780347436188976   F   F   F
  0.7184337867332147  0.6459327856642645  0.3834605945055571   F   F   F
  0.8411529141822527  0.5424265959195793  0.4195961671555111   F   F   F
  0.0047645486004839  0.6037981490802551  0.3577783004107076   F   F   F
  0.8283586992797254  0.7123566732624553  0.4679422553080954   F   F   F
  0.8764370130462945  0.5986052165972096  0.7216355546676996   T   T   T
  0.5199903139142066  0.9855647614121708  0.4217030704774842   F   F   F
  0.2230945721141921  0.9801548350444023  0.3932050219465495   F   F   F
  0.2163736907012108  0.2378514578535444  0.3192303272980936   F   F   F
  0.1575010503146004  0.3298062298577378  0.2789829167401123   F   F   F
  0.3415468765222016  0.1555857053997727  0.3307727584112428   F   F   F
  0.2227158616176865  0.0457589258737627  0.3227384335196248   F   F   F
  0.5112142838251561  0.8252256101600230  0.5466894578015846   T   T   T
  0.4096810705457073  0.2422308749726510  0.6577925661547287   T   T   T
  0.2438145028904662  0.0936450224718919  0.5988010168975878   T   T   T
  0.3153809712620799  0.4871364644243030  0.4424346656312608   F   F   F
  0.4089561836824345  0.4387348585376643  0.4056905975982730   F   F   F
  0.3984995031771135  0.7931136075007075  0.3887867966224334   F   F   F
  0.2442023570718419  0.6554300786283989  0.2943268807443218   F   F   F
  0.3117413815096768  0.4184757133874442  0.3692576443915385   F   F   F
  0.4054742948373828  0.5842796533148373  0.3388198885480591   F   F   F
  0.1393576205410270  0.4879736464301843  0.3519294596467617   F   F   F
  0.5932693450847850  0.6979871282750807  0.3523979868156601   F   F   F
  0.4690068300988983  0.8614274690886390  0.4438283837725479   F   F   F
  0.1192764338906639  0.3224538503887948  0.6083847598790534   T   T   T
  0.0710828842058892  0.6663567585430796  0.6452697045894412   T   T   T
  0.2319486158454284  0.3838244866138268  0.6828778568454817   T   T   T
  0.2458167268061265  0.8173121788032646  0.6688339322985113   T   T   T
  0.5378233595249714  0.4637751850426367  0.7801202138019718   T   T   T
  0.5277890890374188  0.5601710948377375  0.7620190870055749   T   T   T
  0.4418445673377104  0.4489351707138002  0.7993962077731077   T   T   T
  0.3780234916022311  0.5384911174729685  0.7236804816988492   T   T   T
  0.4565835265648774  0.5761058649205841  0.8379557103551833   T   T   T
  0.4333566784753210  0.6180159664123910  0.7812167667278723   T   T   T
  0.3841438258116086  0.5659657358939705  0.8179909961585443   T   T   T
  0.3296085332629399  0.4165770935093047  0.7088355188066853   T   T   T
  0.3795829665781679  0.3716080660702883  0.7490153947224542   T   T   T
  0.3293261473026183  0.4367371241396715  0.7736781249616420   T   T   T
  0.3689417337474836  0.6483550972712351  0.4390000177989322   F   F   F
  0.3468156499340012  0.5040338677980998  0.4203881275781143   F   F   F
  0.8607822850794703  0.5659744693223616  0.6965384235740054   T   T   T
  0.3485694777568956  0.9596678307697849  0.5309946330168330   T   T   T
  0.0331389165168413  0.9321083756949168  0.5285508821868927   T   T   T
  0.6363554822520214  0.0788685454107210  0.4893766723794641   F   F   F
  0.0686461464337711  0.0522654213252736  0.3951107345583225   F   F   F
  0.4518995423849290  0.1295623246799735  0.4205972814427668   F   F   F
  0.8058841492391053  0.2136501795425687  0.4831666074103040   F   F   F
  0.9731223262076860  0.1812243983080401  0.5985495675533375   T   T   T
  0.2747652928370670  0.2991728708608434  0.4485122250900346   F   F   F
  0.5563541661493261  0.7750912910288292  0.4417510122690658   F   F   F
  0.3917301221285626  0.9712017878872550  0.6201305643586181   T   T   T
  0.1775172398119551  0.3499684491797339  0.4052731245300478   F   F   F
  0.8666391268445612  0.6843967267120635  0.6375344523521345   T   T   T
  0.8656960101805780  0.9671769319282575  0.4670384592975196   F   F   F
  0.3010471365425786  0.7609368347250012  0.4579252567998537   F   F   F
  0.4216109455749333  0.2612522168655929  0.3795963030273342   F   F   F
  0.8112258778259582  0.4652130735838986  0.5201651477793432   T   T   T
  0.9833534737021108  0.0721125459552232  0.5210598746823877   T   T   T
  0.5112429833130844  0.4636219188238106  0.6271369694933584   T   T   T
  0.0345364060712328  0.9199477615026765  0.4294052572495062   F   F   F
  0.9630365418976012  0.3031953077946739  0.3512576249606170   F   F   F
  0.0696266904018330  0.3361057653809567  0.3763717815531962   F   F   F
  0.2082956574839798  0.7286442940463758  0.3953601014000157   F   F   F
  0.0389012628664673  0.4191019154304030  0.4991087535393461   F   F   F
  0.2377304735462582  0.2866487600390216  0.5874914950627654   T   T   T
  0.3962393932742799  0.1952360826183249  0.6450722753944366   T   T   T
  0.4541881785035768  0.5636960980997103  0.5789623284641134   T   T   T
  0.9099933241043420  0.7490266750643769  0.5574761354295100   T   T   T
  0.8691272712828919  0.1080433422095268  0.4422783307318099   F   F   F
  0.5725767945286506  0.6673318527169130  0.3761317316733468   F   F   F
  0.1424265590487721  0.1591254986639967  0.3759722435750490   F   F   F
  0.3501804133025591  0.7658050992511738  0.6067094722213594   T   T   T
  0.9109960497481637  0.8450475712761403  0.4831796236075121   F   F   F
  0.0613380104439898  0.5368717056838861  0.4422534820284341   F   F   F
  0.7083390276613883  0.5551665516973827  0.4199576800001736   F   F   F
  0.0754872572295611  0.8168068047449992  0.4829941554854784   F   F   F
  0.7004647711503367  0.8275557148620294  0.4326352913293690   F   F   F
  0.7302908787894467  0.0492444931019377  0.5429443142016452   T   T   T
  0.9178078849996884  0.3009538102011950  0.6312757335826777   T   T   T
  0.7349906488235193  0.8520762291039103  0.6130454238058703   T   T   T
  0.6251219543397468  0.5273940019123060  0.4863787091564404   F   F   F
  0.5565732986914895  0.6297030402341477  0.4672494240254110   F   F   F
  0.4267179793585940  0.2473365503736452  0.5562685137451393   T   T   T
  0.9782900937866188  0.7282436334557403  0.4767956400891720   F   F   F
  0.6541144068875355  0.5940354559175461  0.6334376720440195   T   T   T
  0.3968834785027371  0.7458378757658423  0.5154974734145501   T   T   T
  0.6026900684925138  0.5176654516222357  0.3856709925442061   F   F   F
  0.7199677024694145  0.6305647605987862  0.5569840182390183   T   T   T
  0.1430491013259600  0.3653437316405862  0.6148535678867325   T   T   T
  0.0660238072160498  0.5482596799041378  0.5420472491719063   T   T   T
  0.8185332850420735  0.8839571259515647  0.5363004348242428   T   T   T
  0.8282155306144290  0.3553851425745194  0.4519033357708793   F   F   F
  0.5275870585867745  0.2985162527158463  0.5314423699859940   T   T   T
  0.7371215042789094  0.4989913902585316  0.5956810591487942   T   T   T
  0.5574339360525684  0.1724311050277691  0.3949085375269945   F   F   F
  0.8059640829434258  0.2564125703207623  0.3832928600033014   F   F   F
  0.2374462167159379  0.9532507503228373  0.5079195554207132   F   F   F
  0.6928212021496329  0.7756428785361527  0.5416038664258783   T   T   T
  0.9232732103507878  0.9495629021809981  0.5530185908155034   T   T   T
  0.5257372223071499  0.3177811194315368  0.3985559351687087   F   F   F
  0.4677752611022157  0.9896491879823647  0.5461488049406577   T   T   T
  0.8378460875226796  0.0947122994670346  0.5397407619935474   T   T   T
  0.5379032529954273  0.1164174891624583  0.4862370923690094   F   F   F
  0.3501934424681892  0.1866087322829628  0.4396363938456389   F   F   F
  0.0117603227697671  0.9624138997505156  0.3352437574830063   F   F   F
  0.4576991443854187  0.5823670038473397  0.6741933518335327   T   T   T
  0.6549652215052149  0.9253975041590294  0.3792282539811964   F   F   F
  0.0762933429000086  0.6860262572550013  0.4358810225764742   F   F   F
  0.4523319258894663  0.4048384938957734  0.5522723287225323   T   T   T
  0.7192194365794862  0.7004208511946786  0.3795829994963285   F   F   F
  0.4493666872263002  0.7024061718108818  0.6020858276439535   T   T   T
  0.7525510590585540  0.7093245752524027  0.4762954835743187   F   F   F
  0.7794525750145057  0.1205496161389590  0.6209162172358724   T   T   T
  0.9932746154998640  0.3080134732727942  0.4484029789284989   F   F   F
  0.5340265692724222  0.5074173350218613  0.5304236418865726   T   T   T
  0.8167775851685377  0.4990617343205841  0.4234422052650615   F   F   F
  0.2355535713471194  0.1455425001589352  0.6054298202750877   T   T   T
  0.2035333056693176  0.8307013159295948  0.4705336293601903   F   F   F
  0.2398487510338027  0.5593570919822721  0.5225339056748045   T   T   T
  0.0610401498658068  0.6253183857947611  0.6238823681058440   T   T   T
  0.0460740721579711  0.6023466920262663  0.3541786312221902   F   F   F
  0.8005911252659428  0.9781905628808862  0.6053240092576686   T   T   T
  0.5379909096643800  0.0276974916307395  0.4045027517534763   F   F   F
  0.6049008153754580  0.3130357509666016  0.6049383272248524   T   T   T
  0.8615461074870723  0.0040808493425857  0.3692063291070653   F   F   F
  0.0949113079349573  0.1490228352536036  0.4670823258906296   F   F   F
  0.1713189819921637  0.2034930094055582  0.5307246172894948   T   T   T
  0.6409886548370807  0.7044387200849300  0.4548155821771758   F   F   F
  0.4367877833594562  0.4097684807507775  0.3864132536704119   F   F   F
  0.5742486542229810  0.0575282797389361  0.5706609161132525   T   T   T
  0.1514377461550822  0.5934080233507046  0.3889583608347777   F   F   F
  0.2677397900298786  0.6023375312719352  0.3923062966030031   F   F   F
  0.4402584599838875  0.3221981821637669  0.4703244327181508   F   F   F
  0.2380096658428670  0.1585111292073265  0.4299011866524154   F   F   F
  0.0726830765503022  0.1493812041145154  0.5624916986004110   T   T   T
  0.8450494231202592  0.5448841989850255  0.5995265767530009   T   T   T
  0.6211794283797261  0.2799398764502143  0.4109054511829981   F   F   F
  0.6026669933268991  0.8915266656811696  0.4672234595428861   F   F   F
  0.0313853911711632  0.1952898289720011  0.3889918752683101   F   F   F
  0.6075384812122048  0.1953197673378982  0.5475827529533903   T   T   T
  0.1327997262830110  0.9383546444265392  0.4794870772378772   F   F   F
  0.0799377794057521  0.2800262209541944  0.5122032463933506   T   T   T
  0.3717379655152822  0.1051590223444406  0.5715705000121524   T   T   T
  0.0663290396771769  0.6966078782754216  0.5356781280923421   T   T   T
  0.6664883802395920  0.4153848774500162  0.4300115561107631   F   F   F
  0.7995326020237364  0.7291570527486472  0.5641008799479913   T   T   T
  0.7038385585664102  0.9572084331836876  0.4701845621740759   F   F   F
  0.5978201735662300  0.6336662609329540  0.5533444755698144   T   T   T
  0.7228402998194312  0.2936846539655704  0.4516681052539582   F   F   F
  0.9772138805192947  0.3143560478797938  0.5470432870967468   T   T   T
  0.1580170908431533  0.6295059224096617  0.5706084493357149   T   T   T
  0.6333338447636834  0.3267830791508146  0.5078007023299378   F   F   F
  0.8207356699236741  0.3970618012834351  0.6058750507450089   T   T   T
  0.9585781980424741  0.0272430442537654  0.4169530046787955   F   F   F
  0.2819757468221084  0.1955520771611281  0.5186922163246466   T   T   T
  0.2492575497062219  0.4430328890313291  0.4610556955705079   F   F   F
  0.2723656569525318  0.8500170103311685  0.5683938932636757   T   T   T
  0.2036681492717136  0.6855731693326916  0.4868887178860462   F   F   F
  0.1471234534025641  0.4760698765562736  0.4925449251270066   F   F   F
  0.2254209059937057  0.4244750789944141  0.5572126924278871   T   T   T
  0.9114169782388899  0.4527445980703959  0.4737188145108959   F   F   F
  0.8697881760712605  0.7045601104075629  0.4641535209108483   F   F   F
  0.7381202077648155  0.0928346184210156  0.4452296472671975   F   F   F
  0.2221834364137223  0.9297811896885051  0.4079468165165281   F   F   F
  0.2458977858990845  0.4012475450726379  0.6510327421121740   T   T   T
  0.6305890380820350  0.8827640433065026  0.5935586880716446   T   T   T
  0.4102232652989244  0.7890623918912638  0.4234373851432949   F   F   F
  0.9177713526838360  0.1960382935517870  0.5082451459005242   F   F   F
  0.1325470583719763  0.4435361137187215  0.3322726622007863   F   F   F
  0.1551476808383612  0.3035232550984901  0.3105604161752922   F   F   F
  0.3730051452223293  0.1309070431484400  0.3479534200993726   F   F   F
  0.0338005018239010  0.2918724766889365  0.6333596174869706   T   T   T
  0.5726892607312024  0.2568681912710389  0.3200996781806822   F   F   F
  0.2451589354818041  0.7716232793930715  0.6500145445011933   T   T   T
  0.2073742988503469  0.6484050495897407  0.3103690611938177   F   F   F
  0.2753744117323080  0.3921912989361900  0.3673758273212613   F   F   F
  0.3653508124399352  0.5975866320683707  0.3422207943191111   F   F   F
  0.2263808501748272  0.0561808239321806  0.3581188824802055   F   F   F
  0.2412033349838580  0.1960782275144553  0.3293429668079639   F   F   F
  0.5012729261245497  0.8923016217637851  0.4548416832162587   F   F   F
  0.5501457161396421  0.8278229736551833  0.5342870562912430   T   T   T
  0.5445107452470973  0.6470895023585573  0.6346012523510312   T   T   T
  0.4791357420112538  0.1221414552698066  0.5948073874462581   T   T   T
  0.2618492775932669  0.6947661485545449  0.5687753786389881   T   T   T
  0.4430331025365321  0.8459625914477871  0.5817088650604573   T   T   T
  0.7655557407681570  0.6169443187128651  0.6495050733212181   T   T   T
  0.8449020860428890  0.8317394221451314  0.6226873921875132   T   T   T
  0.6397760553201421  0.7391197446582094  0.6212407764659525   T   T   T
  0.0076068104458318  0.0329834724242216  0.6029540726774726   T   T   T
  0.2840921778854296  0.0016540969413481  0.5944868723091926   T   T   T
  0.5033802213382351  0.9715162501188528  0.6283586065028499   T   T   T
  0.4739490306184307  0.3805463363019920  0.7045331475026886   T   T   T
  0.0832252792112911  0.6064203006159019  0.4064130837160320   F   F   F
  0.4093586967773898  0.7639283902998459  0.5752447637940036   T   T   T
  0.8417638189206400  0.4414531150138714  0.4678389696388976   F   F   F
  0.0170894936360568  0.9904820387337452  0.3936113541928137   F   F   F
  0.0147002065988957  0.2841902735343993  0.3910814136036507   F   F   F
  0.0090193128601622  0.1145027148082840  0.5723443141371404   T   T   T
  0.6088209249851795  0.6571480818260165  0.6112918761020307   T   T   T
  0.2140473350158312  0.4764481532068746  0.5096231336913305   T   T   T
  0.9150621277607272  0.7555609372428762  0.4962545438487922   F   F   F
  0.5205785424525260  0.1104556259083296  0.4259865881079392   F   F   F
  0.4188863136925802  0.1697989696337150  0.5899645338397591   T   T   T
  0.0834525281222085  0.1391720768766334  0.4069808717903314   F   F   F
  0.7018979344879455  0.0448462543081121  0.4873230277072054   F   F   F
  0.6650593546056740  0.8980374632893202  0.4374764361266443   F   F   F
  0.6500987439622605  0.5040270568778311  0.4301508871204760   F   F   F
  0.1984606475206618  0.9124822312100775  0.4639906909803457   F   F   F
  0.2117507136849950  0.3669984351516957  0.6025442668793959   T   T   T
  0.6734199903549902  0.8127314107283623  0.5948218941194452   T   T   T
  0.2163734865674709  0.6418847779773793  0.5386303881321640   T   T   T
  0.3687891183512946  0.7351277331247985  0.4592092972079129   F   F   F
  0.7971259072960987  0.8879430461333191  0.5954058949488615   T   T   T
  0.8794240806520465  0.9120050226793461  0.5119182462270550   T   T   T
  0.5764061595021933  0.5745941338871391  0.5119583433056906   T   T   T
  0.5898165767702900  0.1153105373036274  0.5252658184758380   T   T   T
  0.8581223411646519  0.1521132321647087  0.4951759473310489   F   F   F
  0.8354759271242278  0.6039391813435004  0.6458574764781742   T   T   T
  0.1337385207486648  0.3603189034452470  0.3568722791356791   F   F   F
  0.7906552882913616  0.2799392454557648  0.4418726542293072   F   F   F
  0.3991760967689615  0.1774948437530099  0.3960031981861079   F   F   F
  0.8561250222732025  0.7499987139961672  0.5964693694395146   T   T   T
  0.2828368871836023  0.9350979085962724  0.5498336864871126   T   T   T
  0.0230747322536402  0.3304475144031116  0.5022455100715746   F   F   F
  0.5745593847912573  0.6954900807820579  0.4355643604055430   F   F   F
  0.2302409542041772  0.7526004963776103  0.4519695445397645   F   F   F
  0.5935265488933514  0.2839350602688815  0.5480915171597738   T   T   T
  0.9745974252576964  0.2720029066920113  0.6023133173154467   T   T   T
  0.8889063590224922  0.0254089987032842  0.4242001869335610   F   F   F
  0.1045600127567756  0.1950871809950690  0.5179047087607158   T   T   T
  0.0481456608521569  0.7330370932417907  0.4826301941714348   F   F   F
  0.2317381428693890  0.2060447920705781  0.5610612083818625   T   T   T
  0.5614078070497825  0.2577852695391769  0.3812261074005363   F   F   F
  0.4764517823438273  0.6240087573309137  0.6227007611252240   T   T   T
  0.2811836181896338  0.7709201721773361  0.5977218863683188   T   T   T
  0.2085008252580423  0.6433998443080498  0.3717945352858223   F   F   F
  0.7404668418604955  0.7102907518605239  0.5359032897768555   T   T   T
  0.9860982701466096  0.9900897567411759  0.5503462933474581   T   T   T
  0.7031045577904180  0.7368181529665634  0.4342603982179796   F   F   F
  0.7880732273651193  0.0591946996051360  0.5767167779427029   T   T   T
  0.4563138979678243  0.3284515948311224  0.4092878915485585   F   F   F
  0.4495342363804019  0.9350282537550760  0.5945105855281165   T   T   T
  0.5084846987923151  0.0403613745522941  0.5855603175363004   T   T   T
  0.2442471516429308  0.3704063236853941  0.4209471039025985   F   F   F
  0.6585253436744694  0.3300021106527140  0.4503479098948588   F   F   F
  0.4603931245807117  0.3184105847585333  0.5288805635977333   T   T   T
  0.3372993678081997  0.5899425415699397  0.3990830096962270   F   F   F
  0.8035314817115073  0.4767849861368321  0.5798160429232037   T   T   T
  0.0692097893475037  0.8988591555082337  0.4805055068825652   F   F   F
  0.2119075788177369  0.1444543211161857  0.3735965933534686   F   F   F
  0.0782328565913559  0.4939849948658406  0.4946876202126234   F   F   F
  0.5575701889191933  0.8523400984338849  0.4747302534090920   F   F   F
  0.7183107070054544  0.5845298509574164  0.6096910130286265   T   T   T
  0.2866421241915660  0.2101017383532309  0.4591107728955208   F   F   F
  0.0878236138565475  0.6252596073224781  0.5677239012649099   T   T   T
  0.3531573916742698  0.0189723471650913  0.5796431236008346   T   T   T
  0.4859156501526041  0.4818709899537836  0.5710330947267072   T   T   T
  0.4756744472705999  0.4749667730408057  0.6931736188407844   T   T   T

  0.00000000E+00  0.00000000E+00  0.00000000E+00
  0.00000000E+00  0.00000000E+00  0.00000000E+00
  0.00000000E+00  0.00000000E+00  0.00000000E+00
  0.00000000E+00  0.00000000E+00  0.00000000E+00
  0.00000000E+00  0.00000000E+00  0.00000000E+00
  0.00000000E+00  0.00000000E+00  0.00000000E+00
  0.00000000E+00  0.00000000E+00  0.00000000E+00
  0.00000000E+00  0.00000000E+00  0.00000000E+00
  0.00000000E+00  0.00000000E+00  0.00000000E+00
  0.00000000E+00  0.00000000E+00  0.00000000E+00
  0.00000000E+00  0.00000000E+00  0.00000000E+00
  0.00000000E+00  0.00000000E+00  0.00000000E+00
  0.00000000E+00  0.00000000E+00  0.00000000E+00
  0.00000000E+00  0.00000000E+00  0.00000000E+00
  0.00000000E+00  0.00000000E+00  0.00000000E+00
  0.00000000E+00  0.00000000E+00  0.00000000E+00
  0.00000000E+00  0.00000000E+00  0.00000000E+00
  0.00000000E+00  0.00000000E+00  0.00000000E+00
  0.00000000E+00  0.00000000E+00  0.00000000E+00
  0.00000000E+00  0.00000000E+00  0.00000000E+00
  0.00000000E+00  0.00000000E+00  0.00000000E+00
  0.00000000E+00  0.00000000E+00  0.00000000E+00
  0.00000000E+00  0.00000000E+00  0.00000000E+00
  0.00000000E+00  0.00000000E+00  0.00000000E+00
  0.00000000E+00  0.00000000E+00  0.00000000E+00
  0.00000000E+00  0.00000000E+00  0.00000000E+00
  0.00000000E+00  0.00000000E+00  0.00000000E+00
  0.00000000E+00  0.00000000E+00  0.00000000E+00
  0.00000000E+00  0.00000000E+00  0.00000000E+00
  0.00000000E+00  0.00000000E+00  0.00000000E+00
  0.00000000E+00  0.00000000E+00  0.00000000E+00
  0.00000000E+00  0.00000000E+00  0.00000000E+00
  0.00000000E+00  0.00000000E+00  0.00000000E+00
  0.00000000E+00  0.00000000E+00  0.00000000E+00
  0.00000000E+00  0.00000000E+00  0.00000000E+00
  0.00000000E+00  0.00000000E+00  0.00000000E+00
  0.00000000E+00  0.00000000E+00  0.00000000E+00
  0.00000000E+00  0.00000000E+00  0.00000000E+00
  0.00000000E+00  0.00000000E+00  0.00000000E+00
  0.00000000E+00  0.00000000E+00  0.00000000E+00
  0.00000000E+00  0.00000000E+00  0.00000000E+00
  0.00000000E+00  0.00000000E+00  0.00000000E+00
  0.00000000E+00  0.00000000E+00  0.00000000E+00
  0.00000000E+00  0.00000000E+00  0.00000000E+00
  0.00000000E+00  0.00000000E+00  0.00000000E+00
  0.00000000E+00  0.00000000E+00  0.00000000E+00
  0.00000000E+00  0.00000000E+00  0.00000000E+00
  0.00000000E+00  0.00000000E+00  0.00000000E+00
  0.00000000E+00  0.00000000E+00  0.00000000E+00
  0.00000000E+00  0.00000000E+00  0.00000000E+00
  0.00000000E+00  0.00000000E+00  0.00000000E+00
  0.00000000E+00  0.00000000E+00  0.00000000E+00
  0.00000000E+00  0.00000000E+00  0.00000000E+00
  0.00000000E+00  0.00000000E+00  0.00000000E+00
  0.00000000E+00  0.00000000E+00  0.00000000E+00
  0.00000000E+00  0.00000000E+00  0.00000000E+00
  0.00000000E+00  0.00000000E+00  0.00000000E+00
  0.00000000E+00  0.00000000E+00  0.00000000E+00
  0.00000000E+00  0.00000000E+00  0.00000000E+00
  0.00000000E+00  0.00000000E+00  0.00000000E+00
  0.00000000E+00  0.00000000E+00  0.00000000E+00
  0.00000000E+00  0.00000000E+00  0.00000000E+00
  0.00000000E+00  0.00000000E+00  0.00000000E+00
  0.00000000E+00  0.00000000E+00  0.00000000E+00
  0.00000000E+00  0.00000000E+00  0.00000000E+00
  0.00000000E+00  0.00000000E+00  0.00000000E+00
  0.00000000E+00  0.00000000E+00  0.00000000E+00
  0.00000000E+00  0.00000000E+00  0.00000000E+00
  0.00000000E+00  0.00000000E+00  0.00000000E+00
  0.00000000E+00  0.00000000E+00  0.00000000E+00
  0.00000000E+00  0.00000000E+00  0.00000000E+00
  0.00000000E+00  0.00000000E+00  0.00000000E+00
  0.00000000E+00  0.00000000E+00  0.00000000E+00
  0.00000000E+00  0.00000000E+00  0.00000000E+00
  0.00000000E+00  0.00000000E+00  0.00000000E+00
  0.00000000E+00  0.00000000E+00  0.00000000E+00
  0.00000000E+00  0.00000000E+00  0.00000000E+00
  0.00000000E+00  0.00000000E+00  0.00000000E+00
  0.00000000E+00  0.00000000E+00  0.00000000E+00
  0.00000000E+00  0.00000000E+00  0.00000000E+00
  0.00000000E+00  0.00000000E+00  0.00000000E+00
  0.00000000E+00  0.00000000E+00  0.00000000E+00
  0.00000000E+00  0.00000000E+00  0.00000000E+00
  0.00000000E+00  0.00000000E+00  0.00000000E+00
  0.00000000E+00  0.00000000E+00  0.00000000E+00
  0.00000000E+00  0.00000000E+00  0.00000000E+00
  0.00000000E+00  0.00000000E+00  0.00000000E+00
  0.00000000E+00  0.00000000E+00  0.00000000E+00
  0.00000000E+00  0.00000000E+00  0.00000000E+00
  0.00000000E+00  0.00000000E+00  0.00000000E+00
  0.00000000E+00  0.00000000E+00  0.00000000E+00
  0.00000000E+00  0.00000000E+00  0.00000000E+00
  0.00000000E+00  0.00000000E+00  0.00000000E+00
  0.00000000E+00  0.00000000E+00  0.00000000E+00
  0.00000000E+00  0.00000000E+00  0.00000000E+00
  0.00000000E+00  0.00000000E+00  0.00000000E+00
  0.00000000E+00  0.00000000E+00  0.00000000E+00
  0.00000000E+00  0.00000000E+00  0.00000000E+00
  0.00000000E+00  0.00000000E+00  0.00000000E+00
  0.00000000E+00  0.00000000E+00  0.00000000E+00
  0.00000000E+00  0.00000000E+00  0.00000000E+00
  0.00000000E+00  0.00000000E+00  0.00000000E+00
  0.00000000E+00  0.00000000E+00  0.00000000E+00
  0.00000000E+00  0.00000000E+00  0.00000000E+00
  0.00000000E+00  0.00000000E+00  0.00000000E+00
  0.00000000E+00  0.00000000E+00  0.00000000E+00
  0.00000000E+00  0.00000000E+00  0.00000000E+00
  0.00000000E+00  0.00000000E+00  0.00000000E+00
  0.00000000E+00  0.00000000E+00  0.00000000E+00
  0.00000000E+00  0.00000000E+00  0.00000000E+00
  0.00000000E+00  0.00000000E+00  0.00000000E+00
  0.00000000E+00  0.00000000E+00  0.00000000E+00
  0.00000000E+00  0.00000000E+00  0.00000000E+00
  0.00000000E+00  0.00000000E+00  0.00000000E+00
  0.00000000E+00  0.00000000E+00  0.00000000E+00
  0.00000000E+00  0.00000000E+00  0.00000000E+00
  0.00000000E+00  0.00000000E+00  0.00000000E+00
  0.00000000E+00  0.00000000E+00  0.00000000E+00
  0.00000000E+00  0.00000000E+00  0.00000000E+00
  0.00000000E+00  0.00000000E+00  0.00000000E+00
  0.00000000E+00  0.00000000E+00  0.00000000E+00
  0.00000000E+00  0.00000000E+00  0.00000000E+00
  0.00000000E+00  0.00000000E+00  0.00000000E+00
  0.00000000E+00  0.00000000E+00  0.00000000E+00
  0.00000000E+00  0.00000000E+00  0.00000000E+00
  0.00000000E+00  0.00000000E+00  0.00000000E+00
  0.00000000E+00  0.00000000E+00  0.00000000E+00
  0.00000000E+00  0.00000000E+00  0.00000000E+00
  0.00000000E+00  0.00000000E+00  0.00000000E+00
  0.00000000E+00  0.00000000E+00  0.00000000E+00
  0.00000000E+00  0.00000000E+00  0.00000000E+00
  0.00000000E+00  0.00000000E+00  0.00000000E+00
  0.00000000E+00  0.00000000E+00  0.00000000E+00
  0.00000000E+00  0.00000000E+00  0.00000000E+00
  0.00000000E+00  0.00000000E+00  0.00000000E+00
  0.00000000E+00  0.00000000E+00  0.00000000E+00
  0.00000000E+00  0.00000000E+00  0.00000000E+00
  0.00000000E+00  0.00000000E+00  0.00000000E+00
  0.00000000E+00  0.00000000E+00  0.00000000E+00
  0.00000000E+00  0.00000000E+00  0.00000000E+00
  0.00000000E+00  0.00000000E+00  0.00000000E+00
  0.00000000E+00  0.00000000E+00  0.00000000E+00
  0.00000000E+00  0.00000000E+00  0.00000000E+00
  0.00000000E+00  0.00000000E+00  0.00000000E+00
  0.00000000E+00  0.00000000E+00  0.00000000E+00
  0.00000000E+00  0.00000000E+00  0.00000000E+00
  0.00000000E+00  0.00000000E+00  0.00000000E+00
  0.00000000E+00  0.00000000E+00  0.00000000E+00
  0.00000000E+00  0.00000000E+00  0.00000000E+00
  0.00000000E+00  0.00000000E+00  0.00000000E+00
  0.00000000E+00  0.00000000E+00  0.00000000E+00
  0.00000000E+00  0.00000000E+00  0.00000000E+00
  0.00000000E+00  0.00000000E+00  0.00000000E+00
  0.00000000E+00  0.00000000E+00  0.00000000E+00
  0.00000000E+00  0.00000000E+00  0.00000000E+00
  0.00000000E+00  0.00000000E+00  0.00000000E+00
  0.00000000E+00  0.00000000E+00  0.00000000E+00
  0.00000000E+00  0.00000000E+00  0.00000000E+00
  0.00000000E+00  0.00000000E+00  0.00000000E+00
  0.00000000E+00  0.00000000E+00  0.00000000E+00
  0.00000000E+00  0.00000000E+00  0.00000000E+00
  0.00000000E+00  0.00000000E+00  0.00000000E+00
  0.00000000E+00  0.00000000E+00  0.00000000E+00
  0.00000000E+00  0.00000000E+00  0.00000000E+00
  0.00000000E+00  0.00000000E+00  0.00000000E+00
  0.00000000E+00  0.00000000E+00  0.00000000E+00
  0.00000000E+00  0.00000000E+00  0.00000000E+00
  0.00000000E+00  0.00000000E+00  0.00000000E+00
  0.00000000E+00  0.00000000E+00  0.00000000E+00
  0.00000000E+00  0.00000000E+00  0.00000000E+00
  0.00000000E+00  0.00000000E+00  0.00000000E+00
  0.00000000E+00  0.00000000E+00  0.00000000E+00
  0.00000000E+00  0.00000000E+00  0.00000000E+00
  0.00000000E+00  0.00000000E+00  0.00000000E+00
  0.00000000E+00  0.00000000E+00  0.00000000E+00
  0.00000000E+00  0.00000000E+00  0.00000000E+00
  0.00000000E+00  0.00000000E+00  0.00000000E+00
  0.00000000E+00  0.00000000E+00  0.00000000E+00
  0.00000000E+00  0.00000000E+00  0.00000000E+00
  0.00000000E+00  0.00000000E+00  0.00000000E+00
  0.00000000E+00  0.00000000E+00  0.00000000E+00
  0.00000000E+00  0.00000000E+00  0.00000000E+00
  0.00000000E+00  0.00000000E+00  0.00000000E+00
  0.00000000E+00  0.00000000E+00  0.00000000E+00
  0.00000000E+00  0.00000000E+00  0.00000000E+00
  0.00000000E+00  0.00000000E+00  0.00000000E+00
  0.00000000E+00  0.00000000E+00  0.00000000E+00
  0.00000000E+00  0.00000000E+00  0.00000000E+00
  0.00000000E+00  0.00000000E+00  0.00000000E+00