 C  H  O Si  W 
 1.0000000000000000
    23.4112945954000011    0.0000000000000000    0.0000000000000000
     0.0000000000000000   18.1212369513999967    0.0000000000000000
     0.0000000000000000    0.0000000000000000   26.8833665072999999
 C   H   O   Si  W  
   4  52 154  65   1
Selective dynamics
Cartesian
 12.9715725858944371  9.4962553043897149 19.5315242204324662   T   T   T
 12.1835708040731614 10.4061856887028537 20.3958324410265668   T   T   T
 13.2959669583988056  8.0643688420531312 19.9475275188925600   T   T   T
 12.6191549340565903 11.8537991671807941 20.6352157401766796   T   T   T
 17.8135044361795778  2.8690327142639465 17.5064808937162866   T   T   T
 21.6888712413008591  6.0498263066050999  9.5794825048000938   F   F   F
 18.5731093535008611  4.7561500119050431 10.0397684046000943   F   F   F
 22.8152222629008428 18.0993550400051184  8.7452341457000404   F   F   F
 14.6492117531008716  0.3380828595050411 10.0874778744999212   F   F   F
 19.2098661771007961  0.9095145678050452  9.9197641015000606   F   F   F
 17.5583087964009543  3.5583336872050348 12.3136086081000542   F   F   F
 21.4315419701140861  5.5205543299719011 13.6889054577973432   T   T   T
 13.6603233166007954  6.5136318169050904  8.2243523073000517   F   F   F
 20.8713328997807714  7.0678524861796594 16.5618828582220985   T   T   T
 13.8252281031546609  7.5276950984366797 16.5158514762349071   T   T   T
 13.8829636520778212 16.7559780953038633 15.5391003006890145   T   T   T
  0.7971409876556435  7.1250749056992175 17.5232233184348623   T   T   T
 21.8958933816008461  8.6021166893050314 12.2077758528999212   F   F   F
 17.4680653944009308 10.6099092730050568 11.3579048886000145   F   F   F
 18.6912083743956359  7.9178133221325311 17.0653251321129353   T   T   T
 13.8384634655008458 11.3052362532051500 10.1628465652000166   F   F   F
 16.8194650296009520 12.7051010664051045 10.3087117032000393   F   F   F
 19.6924786748008209 10.8294408761050960 11.2801575466999218   F   F   F
  0.1115442520009150 11.9415693330051429  9.6182851782999332   F   F   F
 19.3929495406008918 13.9087840728050800 12.5798631537000798   F   F   F
 20.5219550699339308 11.8520319115674617 19.3989716323455745   T   T   T
 12.1736464269008984  0.7384156238050552 11.3367982008999686   F   F   F
  5.2229327515009496  0.6403810662050956 10.5706747175000295   F   F   F
  5.0655882168008928  5.3101626297051094  8.5819858889999878   F   F   F
  3.6873034891009135  6.9764968420050595  7.5000000000000000   F   F   F
  7.9960545455008551  3.8194054365050953  8.8922852950000415   F   F   F
  5.2140666485008831  1.8292083411051041  8.6762955942999476   F   F   F
 11.9602453828444233 15.9838889364863128 14.6958400669116998   T   T   T
  8.7812750247784574  5.3745009740900560 17.4189034889097449   T   T   T
  5.6969357680959503  2.6877267851201720 16.0925400021585503   T   T   T
  7.3834768291008199  9.8275153022051320 11.8941332716999124   F   F   F
  9.5741936939008738  8.9504183331050733 10.9063290237999357   F   F   F
  9.3293892661008275 15.3721996136050745 10.4518979467999813   F   F   F
  5.7170933234008388 12.8772037626050473  7.9124974079999815   F   F   F
  7.2982693212009124  8.5832975634051287  9.9268885897999795   F   F   F
  9.4926781684009356 11.5878700463051096  9.1086192438000104   F   F   F
  3.2625423097008355  9.8426860757051529  9.4610486483999399   F   F   F
 13.8892034133008124 13.6483901432050629  9.4736442360000641   F   F   F
 10.9800570678009102 16.6101312865051227 11.9316011073000059   F   F   F
  2.8550416143960589  6.8500847947135428 16.4427838881540289   T   T   T
  1.6871151879708137 13.0648795459016558 17.3515308008120179   T   T   T
  5.6826993567983024  7.9832502835537706 18.3485128806176299   T   T   T
  5.7837650925973501 15.7785955102235373 18.0006903642446758   T   T   T
 13.7708507118183991  9.9921618350597470 18.9595109408824918   T   T   T
 11.7088050221697397  9.9326442746500430 21.2658692618123055   T   T   T
 14.2007655482584614  8.0386948572793635 20.5809017846068336   T   T   T
 12.4620771252173022  7.6383208545916954 20.5233065327854618   T   T   T
 13.4811716529370962  7.4145505554125419 19.0781140708065848   T   T   T
 13.3203172833971060 11.8905636567476982 21.4864893399578634   T   T   T
 13.1298556892330325 12.2680205740913610 19.7542110235172466   T   T   T
 11.7620670953407345 12.5036061723669096 20.8685482331855354   T   T   T
  8.6374036184008549 12.7489963490051448 11.8017983751999189   F   F   F
  8.1194033520009068 10.1337171526050867 11.3014481090000363   F   F   F
 20.1504371534487206 11.2570454129780693 18.7309248734844687   T   T   T
  8.1631097557871275  0.2738073931439890 14.2629827681434946   T   T   T
  0.7831059569237673 17.8991714861694788 14.2088595937602555   T   T   T
 14.8979056635007971  2.4291956021050263 13.1560924437000111   F   F   F
  1.6070951581008681  1.9471140869051375 10.6219066880999105   F   F   F
 10.5795533154009078  3.3478295882051219 11.3070708689999098   F   F   F
 18.8667912287008797  4.8716055309051400 12.9891449910999359   F   F   F
 22.7820344357803393  4.2896475089724184 16.0973386226440951   T   T   T
  6.4326112163008107  6.4213824850050374 12.0575185301000349   F   F   F
 13.0249712842008787 15.0456129464050505 11.8757543678000772   F   F   F
  9.1584347392417857  0.5409853396449035 16.6554702452760708   T   T   T
  4.1559083981008360  7.3418611958050457 10.8951059422999119   F   F   F
 20.2839745990162150 13.3949934873042391 17.1327065028301817   T   T   T
 20.2670643255007938  0.4052054087051238 12.5555660742999340   F   F   F
  7.0479032018008052 14.7891166898051445 12.3105725114999398   F   F   F
  9.8704580526008066  5.7342133286050476 10.2048265390999404   F   F   F
 18.9928602243910944  9.4317517828691741 13.9847728031733887   T   T   T
 23.0244397641501699  2.3185047015082327 14.0131047683918535   T   T   T
 11.9498115941616359  9.3835533906210831 16.9053960486000996   T   T   T
  0.8085419779008778 17.6705913718051129 11.5438589107999157   F   F   F
 22.5459321896009008  6.4942740178050400  9.4429874702999967   F   F   F
  1.6300509618009076  7.0906522179050704 10.1181405465000296   F   F   F
  4.8764710014008719 14.2039359084050503 10.6286105082999160   F   F   F
  0.9107289262008486  8.5946451190050368 13.4177235483999091   F   F   F
  5.6115654570311237  6.1815877146980265 15.8029103988508925   T   T   T
  9.2913306127795838  4.5526182603419354 17.3442992563876182   T   T   T
 10.6446073351695034 11.2247736235845199 15.5851046141199117   T   T   T
 21.2970228778428385 14.5752338184103678 14.9868707860482573   T   T   T
 20.3473945900007998  2.9578790079051340 11.8899304633000895   F   F   F
 13.4047640163009412 13.0928786310050445 10.1116871976000038   F   F   F
  3.3343901332008223  3.8835508690050680 10.1073996205999119   F   F   F
  8.2189225192260018 14.8647231575172718 16.3085312702694374   T   T   T
 21.3275968970008236 16.3133072770051157 12.9894949103000119   F   F   F
  1.4360022335008527 10.7287793939050804 11.8892624465000090   F   F   F
 16.5831336511008374 11.0603046335050283 11.2898762290000771   F   F   F
  1.7672544183008791 15.8015496550051431 12.9845089027999609   F   F   F
 16.3987871122008606 15.9963332022051468 11.6306931007999363   F   F   F
 17.0915745639047785  1.8867633867256051 14.5982929449201304   T   T   T
 21.5137663305272113  6.4729157449668095 16.9922863345339792   T   T   T
 17.2020369762480350 16.4509352427187636 16.4768156096111191   T   T   T
 14.6349142322008845 10.5570316781051012 13.0754970996000566   F   F   F
 13.0301014607009051 12.4109980038050569 12.5612375163999488   F   F   F
  9.9555211099079788  5.5047548898293286 14.9460769546443615   T   T   T
 22.9030375865009113 14.1966754429050557 12.8178719415999129   F   F   F
 15.3126685155208140 11.7552858955548931 17.0264374123078177   T   T   T
  9.2895335641528298 14.5377878590470111 13.8470371786814894   T   T   T
 14.1097547443009290 10.3807383131051250 10.3681346438000581   F   F   F
 16.8582979991332529 12.4176417079961858 14.9723837185979392   T   T   T
  3.4369062464749938  7.5965752027020246 16.6644199584785255   T   T   T
  1.5587957965813688 10.9416404553368629 14.5699104666357950   T   T   T
 19.1699258390282523 17.0297493514820175 14.4261438747955744   T   T   T
 19.3895977768008123  7.4400183803050375 12.1486830014000038   F   F   F
 12.3458055374357212  6.4137089990022318 14.3186699633370758   T   T   T
 17.2537177946668088 10.0305894927485273 16.0132130472553875   T   T   T
 13.0502500955009282  4.1246649147050451 10.6164709512000286   F   F   F
 18.8686625802008301  5.6465129468051476 10.3042024350999810   F   F   F
  5.5589233312008997  0.1528457720050775 13.6545875645999075   F   F   F
 16.2072215467522405 15.0428761343800481 14.5687905594532996   T   T   T
 21.6276406526587408  0.0899512342591207 14.8659131097371517   T   T   T
 12.3081889923008738  6.7585869666051197 10.7145252788000924   F   F   F
 10.9408311794569251  0.8717813734417731 14.6813806996616929   T   T   T
 19.6083653406531617  2.7182419519936092 14.5101296290632220   T   T   T
 12.5930115208008129  3.1096289091050484 13.0716899635999635   F   F   F
  8.1984818481009238  4.3815810576050351 11.8189063057000023   F   F   F
  0.2753243820008937  0.3188933740051206  9.0124808017000539   F   F   F
 10.5607052332505091 11.7569972852767410 18.1042409829723674   T   T   T
 15.3335837515008873 17.7693474498050357 10.1949321416999528   F   F   F
  1.7861259274008561 13.4316443653050701 11.7179492835000634   F   F   F
 10.5967617286332842  8.3483984879797646 14.8465940300928274   T   T   T
 16.8378581096008446 13.6924922129051492 10.2044688954000726   F   F   F
 10.5866589013232204 13.8023738472582345 16.1071456092583958   T   T   T
 17.6181945428009605 13.8538387063050479 12.8044260507000995   F   F   F
 18.2251819916080855  3.1902202579807213 16.6898627568870772   T   T   T
 23.2538446387008619  6.5815851361051134 12.0545816254999565   F   F   F
 12.5315583129753154 10.2057418830285425 14.3179305061666433   T   T   T
 19.1218206664009358 10.0436159437050367 11.3835519988000051   F   F   F
  5.5166479702098634  3.6313291605801230 16.2743012410220551   T   T   T
  4.7649781801008766 16.0533353845050755 12.6495280121000526   F   F   F
  5.6186871376342564 11.1280431555152912 14.0572612330468569   T   T   T
  1.4347276688330737 12.3354128613337561 16.7662780686076580   T   T   T
  1.0786536776008642 11.9152671358050313  9.5215139521999852   F   F   F
 18.7426574815804301  0.6112735701627038 16.2845109415638056   T   T   T
 12.5950636769009137  1.5019128115051508 10.8743957286000921   F   F   F
 14.1968818676684094  6.6649752521242283 16.2667123391005362   T   T   T
 20.1699097310008888  1.0739500406050606  9.9255090622000601   F   F   F
  2.2219965916008966  3.7004781115050958 12.5567453559999347   F   F   F
  4.0127419742418580  4.6986959934437120 14.2728438049976276   T   T   T
 15.0063742318009474 13.7653009671050537 12.2269739889000402   F   F   F
 10.2257674730008681  8.4255117376051309 10.3880891216999718   F   F   F
 13.4304410109685826  2.0780257774738002 15.3596018215226415   T   T   T
  3.5453536892009190 11.7532874027051211 10.4565101703999730   F   F   F
  6.2681351004009134 11.9151011316051445 10.5465139547000728   F   F   F
 10.3070205059007964  6.8386296070050623 12.6439041021000076   F   F   F
  5.5721144047009572  3.8724177345050448 11.5571911627000716   F   F   F
  1.7031265752629376  3.7215122100461029 15.1229969050512736   T   T   T
 19.7838756829157596 10.8553509275824087 16.1283733952026545   T   T   T
 14.5426145955008295  6.0728568360050756 11.0465218440000079   F   F   F
 14.1092145248008851 17.1555659600051413 12.5605395037000616   F   F   F
  0.7347726398008561  4.5388932677051130 10.4574111511999082   F   F   F
 14.2287242111496575  4.5467095670792075 14.7096418864800231   T   T   T
  3.1090135153009406 18.0041468588051075 12.8902268328999181   F   F   F
  1.8788466574755427  6.0809466732005113 13.7532161544662284   T   T   T
  8.7100541335249755  2.9303176931790045 15.2833846365963097   T   T   T
  1.5614968026583027 13.6307497270719189 14.4018750939165194   T   T   T
 15.6033558153009473  8.5272877930050939 11.5601582653000445   F   F   F
 18.7111148120506172 14.2187429661432088 15.1651296383313845   T   T   T
 16.4777718433008111  0.2245638809050403 12.6401439110000684   F   F   F
 14.0057630933143251 12.5104431504852762 14.8681199234837980   T   T   T
 16.9226272056008540  6.3219292062051160 12.1423592131999118   F   F   F
 22.8854915703624080  6.6931391573369963 14.7116169269652790   T   T   T
  3.7118797870351168 12.4205022468666861 15.3417891518366272   T   T   T
 14.8271652181008076  6.9217136117051110 13.6513923934000658   F   F   F
 19.2027999752009535  8.1762318256839208 16.2824051330012409   T   T   T
 22.4415565882009282  1.4936776629050610 11.2091004411000323   F   F   F
  6.6020131630220487  4.5346789812010693 13.9428522221100248   T   T   T
  5.8354419274008071  9.0283039621051149 12.3947292443000965   F   F   F
  6.4003410252932129 16.4158661512420920 15.3008804819989308   T   T   T
  4.7681350434008749 13.4234338517050791 13.0892078511999745   F   F   F
  3.4443505106009185  9.6269750412050819 13.2412657434999570   F   F   F
  5.2558162740414751  8.6616838187445886 14.9688473629701591   T   T   T
 21.3374513779008055  9.2042921428050981 12.7351565119000814   F   F   F
 20.3628672267008071 13.7675007099050912 12.4780092183000697   F   F   F
 17.2803496319008367  2.6822781204051274 11.9692717873999719   F   F   F
  5.2016018852008630 17.8487852540050902 10.9669837839000888   F   F   F
  5.9011146877211074  8.2886138310902719 17.4554519400326384   T   T   T
 14.7465005473289104 16.9824569388200928 15.9606005064619154   T   T   T
  9.6038577149009363 15.2987865756051349 11.3834224176999435   F   F   F
 21.4862155100009211  4.5524563717051443 13.6633405327999533   F   F   F
  3.1030982324009049  9.0374230159051478  8.9326077583000263   F   F   F
  3.6322080630008546  6.5002168286050672  8.3489094906999988   F   F   F
  8.7325333415007975  3.3721975502051267  9.3541593199999618   F   F   F
  0.8096736468960185  6.2894752539396492 17.0292219775361353   T   T   T
 13.4073969957009069  5.6547693620051325  8.6053569674000610   F   F   F
  5.7621465736431405 14.9630468892570292 17.4762449218147786   T   T   T
  4.8549008030008771 12.7499015468050558  8.3437652246000233   F   F   F
  6.4468714782009240  8.1069914610051477  9.8762990118000236   F   F   F
  8.5533355018009392 11.8290089614051332  9.2000470400999959   F   F   F
  5.2998687753008751  2.0180660253050284  9.6274411709000614   F   F   F
  5.6468823338009386  4.5531800245050622  8.8538476833000335   F   F   F
 11.7354481473009002 17.1696091228051486 12.2276756726999256   F   F   F
 12.8728007795717154 15.9979757269760992 14.3639010871149964   T   T   T
 12.7510019608209895 12.6797008568613894 17.0618800681244416   T   T   T
 11.1904705083838660  3.2430233997892772 16.0413537374921269   T   T   T
  6.1509482207492976 13.5939508716775350 15.2805976070018819   T   T   T
 10.3431215900332560 16.3861053698371748 15.6123263787287083   T   T   T
 17.9209047714942358 12.1729491896037150 17.4583779391694982   T   T   T
 19.7734007899046809 16.0693450396590549 16.7473007224024641   T   T   T
 14.9739831291004251 14.3885334491163750 16.7195890642259180   T   T   T
  0.1906657225985228  1.6055444738807165 16.2105888556270976   T   T   T
  6.6457461596284144  1.0632899414278578 15.9506655636305990   T   T   T
 11.7680886872879515  0.5072100043981280 16.8920633304588925   T   T   T
  9.9778071700552324  8.7967806296135524 19.2103470079560985   T   T   T
  1.9484115305008411 11.9890859623050758 10.9257518829000855   F   F   F
  9.5847882900546768 14.8943632296286648 15.4350391497489863   T   T   T
 19.7067807456009270  8.9996765028050980 12.5770864872000807   F   F   F
  0.4000871711008249  0.8275227713050509 10.5815982962000863   F   F   F
  0.3441508684008761  6.1498792887051295 10.5135849760999207   F   F   F
  0.2158631377513970  3.0846532223623160 15.3908313192439348   T   T   T
 14.2627532840164655 12.9051684208816884 16.4309152780303407   T   T   T
  5.0098629325600257  9.6255407560434403 13.7033714612545623   T   T   T
 21.4227890472008191 14.6916987777051222 13.3409927832000612   F   F   F
 12.1874176185009180  3.0015925724051375 11.4519535752999726   F   F   F
  9.7872628335862952  4.0995221992050919 15.8494933210980466   T   T   T
  1.9537317217008121  3.5219701848050304 10.9410159377999516   F   F   F
 16.4323393213009439  1.8126696034051424 13.1008835612999182   F   F   F
 15.5699004752009156 17.2735496662050494 11.7608393706999959   F   F   F
 15.2196532121008854 10.1335937303050425 11.5639039518999880   F   F   F
  4.6462206858009427 17.5353067284050717 12.4736318016000087   F   F   F
  5.0188846730504046  7.6432708378369165 16.2262082545371520   T   T   T
 15.7630124709523507 15.7263463968042796 15.9966129589504256   T   T   T
  5.0777213576972349 12.6315769404619438 14.4785674923004297   T   T   T
  8.6338306944008796 14.3214238442051141 12.3450918403999772   F   F   F
 18.6634159505617738 17.0972747195245489 16.0119012562500380   T   T   T
 20.5964679149949674 17.5312095435480515 13.7641578168350271   T   T   T
 13.5032016998663575 11.4195008793898349 13.7688512184593268   T   T   T
 13.8092732024956106  3.0959010348759213 14.1182567979671472   T   T   T
 20.0897549290008932  3.7564799262051078 13.3119964777000686   F   F   F
 19.5589954068442324 11.9361711202370575 17.3637349716694978   T   T   T
  3.1309919091008926  7.5294242301050378  9.5939282762999341   F   F   F
 18.5102638787008651  6.0728454016051385 11.8790245131999104   F   F   F
  9.3452291980009399  4.2164261240051140 10.6458991149000965   F   F   F
 20.0373024677764278 14.5907619040936272 16.0357402941743175   T   T   T
  6.6264026492566632 17.9529969258067723 14.7771993319559378   T   T   T
  0.5402093556008346  6.9881177112050494 13.5020501238999753   F   F   F
 13.4511790210007991 13.6031405539050958 11.7094363382999234   F   F   F
  5.3902388079008787 14.6380519273050318 12.1504629159999400   F   F   F
 13.8990384417983979  6.1488187395072975 14.7382054514187395   T   T   T
 22.8306086961599455  5.9346728964315671 16.2011411590248144   T   T   T
 20.8104486399008515  1.4604424889051284 11.4039290978000931   F   F   F
  2.4509922930789978  4.5421351785741768 13.9188501772237121   T   T   T
  1.1271522508009479 14.2835388635050826 12.9747243974000472   F   F   F
  5.4297731466494472  4.7301272357297091 15.0827966758492149   T   T   T
 13.1432835601008247  5.6713879546050405 10.2486411673999296   F   F   F
 11.1494797058523876 12.3842550622437777 16.6872884202966247   T   T   T
  6.6002520762503893 14.9684394688760829 16.0691111259755957   T   T   T
  4.8812742446009318 12.6592010359051361  9.9950887575000422   F   F   F
 17.3316301997222375 13.8673987247169190 14.4060049501436662   T   T   T
 23.0959767287340050  0.8297019685986550 14.7955814101623719   T   T   T
 16.4605879349008077 14.3520563427050849 11.6743814448999963   F   F   F
 18.4438289368740342  2.0753058273524774 15.5053863345123304   T   T   T
 10.6828990944009163  6.9519491797050952 11.0030363954999544   F   F   F
 10.5051433691109626 17.9943540058298304 15.9702030197951430   T   T   T
 11.8909486025253877  1.7723212408156921 15.7600270509812841   T   T   T
  5.7181420223008752  7.7122207625050914 11.3164752744000499   F   F   F
 15.4169308204009194  6.9800464443050512 12.1068679175000042   F   F   F
 10.7736104328020783  6.7800501938606015 14.2200694908008280   T   T   T
  7.8966148677008290 11.6904885862051220 10.7286948165000311   F   F   F
 18.8105172186859910  9.6261388795841132 15.5892710495143660   T   T   T
  1.6202907684008718 17.2884397456050998 12.9176056502999650   F   F   F
  4.9610307558008699  3.6176909843051250 10.0435341450000184   F   F   F
  1.8315324538007995  9.9516191451051093 13.2988686007999846   F   F   F
 13.0534399515009536 16.4454568896051256 12.7623473945000239   F   F   F
 16.8187962050521520 11.5822312538765662 16.3874129662575498   T   T   T
  6.7106632140008706  4.8073033873050424 12.3424431752000618   F   F   F
  2.0684478161838418 12.3372225698282882 15.2599139289127841   T   T   T
  8.2609240402789510  1.3810861911727372 15.5431498853801102   T   T   T
 11.3864625466260279  9.7257839846437406 15.3876305231163624   T   T   T
 11.1040279548720875  9.9556412967971166 18.6170684741338981   T   T   T
