 C  H  O Si  W                          
   1.0000000000000000     
    23.4112945954000011    0.0000000000000000    0.0000000000000000
     0.0000000000000000   18.1212369513999967    0.0000000000000000
     0.0000000000000000    0.0000000000000000   26.8833665072999999
   C    H    O    Si   W 
     4    52   154    65     1
Selective dynamics
Direct
  0.5462005151769914  0.5289017242367953  0.7232873026202096   T   T   T
  0.5261524168702356  0.6100306397328938  0.7876385380955452   T   T   T
  0.5656749083238403  0.4605599879398499  0.7507391577036436   T   T   T
  0.5317262927247113  0.6810460391283298  0.7734444543504513   T   T   T
  0.7621820680661989  0.1583954419394501  0.6512313695843781   T   T   T
  0.9264276758775410  0.3338528337127545  0.3563349293400010   F   F   F
  0.7933396966928187  0.2624627681135012  0.3734565163880745   F   F   F
  0.9745391127316694  0.9987924714271160  0.3253027906056829   F   F   F
  0.6257326647787878  0.0186567208635822  0.3752311999972449   F   F   F
  0.8205383986272708  0.0501905344676185  0.3689926296547130   F   F   F
  0.7499930738495308  0.1963626267207008  0.4580381926778544   F   F   F
  0.9155878274685580  0.3046474498460330  0.5094743094513730   T   T   T
  0.5834928632816770  0.3594474171037164  0.3059271726651788   F   F   F
  0.8916053019464195  0.3901765904434865  0.6160715880881198   T   T   T
  0.5841589852546356  0.4152418169431175  0.6133004216967808   T   T   T
  0.5932892214879978  0.9258690348218683  0.5783410920811168   T   T   T
  0.0338398403132167  0.3941848522469416  0.6514765580002413   T   T   T
  0.9352705076763713  0.4746980966241666  0.4541014552468710   F   F   F
  0.7461383787735161  0.5854958633044876  0.4224881911837885   F   F   F
  0.7978654108233822  0.4385553534903945  0.6351258140290462   T   T   T
  0.5911020174091490  0.6238666975949344  0.3780347436188977   F   F   F
  0.7184337867802386  0.7011166566873688  0.3834605945055574   F   F   F
  0.8411529142292765  0.5976104669426835  0.4195961671555111   F   F   F
  0.0047645486475076  0.6589820201033593  0.3577783004107076   F   F   F
  0.8283586993267494  0.7675405442855595  0.4679422553080956   F   F   F
  0.8791249308346556  0.6542744661761541  0.7201815152254545   T   T   T
  0.5199903139612303  0.0407486324352746  0.4217030704774842   F   F   F
  0.2230945721612159  0.0353387060675061  0.3932050219465495   F   F   F
  0.2163736907482346  0.2930353288766486  0.3192303272980938   F   F   F
  0.1575010503616241  0.3849901008808445  0.2789829167401123   F   F   F
  0.3415468765692253  0.2107695764228806  0.3307727584112428   F   F   F
  0.2227158616647102  0.1009427968968686  0.3227384335196248   F   F   F
  0.5117695204927093  0.8789232857542291  0.5467965926408045   T   T   T
  0.3849626943718139  0.3001760371487608  0.6480396734353251   T   T   T
  0.2449259485139164  0.1482383482278294  0.5978938161621282   T   T   T
  0.3153809713091036  0.5423203354474070  0.4424346656312609   F   F   F
  0.4089561837294582  0.4939187295607681  0.4056905975982731   F   F   F
  0.3984995032241372  0.8482974785238274  0.3887867966224334   F   F   F
  0.2442023571188658  0.7106139496515039  0.2943268807443218   F   F   F
  0.3117413815567006  0.4736595844105483  0.3692576443915385   F   F   F
  0.4054742948844067  0.6394635243379412  0.3388198885480591   F   F   F
  0.1393576205880507  0.5431575174532884  0.3519294596467617   F   F   F
  0.5932693451318088  0.7531709992981861  0.3523979868156601   F   F   F
  0.4690068301459220  0.9166113401117431  0.4438283837725480   F   F   F
  0.1215869982774242  0.3793822034688953  0.6116695598614985   T   T   T
  0.0736216369429235  0.7195452355207496  0.6460376743377819   T   T   T
  0.2453694988127046  0.4383820431464140  0.6820467805823897   T   T   T
  0.2470440054591086  0.8727642292226780  0.6693267283640942   T   T   T
  0.5809588249738258  0.5667219879971951  0.7121470021212271   T   T   T
  0.4857975165242372  0.5835477627282939  0.7983970347951743   T   T   T
  0.5983097775774210  0.4717632505246104  0.7793096086395959   T   T   T
  0.5294603861204262  0.4320934375608847  0.7682082719455671   T   T   T
  0.5848611143947664  0.4222007202010120  0.7233990280971947   T   T   T
  0.5651751017521500  0.5898390538138124  0.8037294301161484   T   T   T
  0.5731514448027177  0.7043517117422592  0.7626301154318526   T   T   T
  0.4941934624240968  0.7149406964102185  0.7722922385347071   T   T   T
  0.3689417337945073  0.7035389682943393  0.4390000177989323   F   F   F
  0.3468156499810249  0.5592177388212036  0.4203881275781143   F   F   F
  0.8605161947132490  0.6216688582137333  0.6966719009425830   T   T   T
  0.3492542569209421  0.0116800579541008  0.5304386613754586   T   T   T
  0.0332909725483220  0.9872039466870777  0.5286657563699194   T   T   T
  0.6363554822990453  0.1340524164338248  0.4893766723794644   F   F   F
  0.0686461464807948  0.1074492923483794  0.3951107345583226   F   F   F
  0.4518995424319527  0.1847461957030774  0.4205972814427669   F   F   F
  0.8058841492861291  0.2688340505656726  0.4831666074103041   F   F   F
  0.9736674818379669  0.2370162722065084  0.5985545581222331   T   T   T
  0.2747652928840907  0.3543567418839473  0.4485122250900346   F   F   F
  0.5563541661963499  0.8302751620519492  0.4417510122690658   F   F   F
  0.3922006557694430  0.0240962005325420  0.6197673969967743   T   T   T
  0.1775172398589789  0.4051523202028458  0.4052731245300479   F   F   F
  0.8659473308141128  0.7393783558132506  0.6373576149795502   T   T   T
  0.8656960102276017  0.0223608029513614  0.4670384592975197   F   F   F
  0.3010471365896024  0.8161207057481211  0.4579252567998539   F   F   F
  0.4216109456219571  0.3164360878886970  0.3795963030273343   F   F   F
  0.8107318961695376  0.5205299300229195  0.5199643366639245   T   T   T
  0.9831770215120561  0.1269772257430404  0.5211298650308478   T   T   T
  0.5258373106987000  0.5020145091643591  0.6209974514589554   T   T   T
  0.0345364061182565  0.9751316325257806  0.4294052572495062   F   F   F
  0.9630365419446253  0.3583791788177780  0.3512576249606171   F   F   F
  0.0696266904488567  0.3912896364040608  0.3763717815531963   F   F   F
  0.2082956575310036  0.7838281650694957  0.3953601014000159   F   F   F
  0.0389012629134911  0.4742857864535069  0.4991087535393462   F   F   F
  0.2384087591735083  0.3413296261324376  0.5879471186597931   T   T   T
  0.3967909808955926  0.2492594711932136  0.6441455998916361   T   T   T
  0.4584785607758035  0.6054880977013722  0.5940152880758817   T   T   T
  0.9094398706318384  0.8037680847636458  0.5574651507168812   T   T   T
  0.8691272713299156  0.1632272132326308  0.4422783307318099   F   F   F
  0.5725767945756743  0.7225157237400173  0.3761317316733469   F   F   F
  0.1424265590957959  0.2143093696871046  0.3759722435750491   F   F   F
  0.3503878426787909  0.8198409692917866  0.6070631780069379   T   T   T
  0.9109960497951876  0.9002314422992446  0.4831796236075122   F   F   F
  0.0613380104910135  0.5920555767069899  0.4422534820284342   F   F   F
  0.7083390277084121  0.6103504227204867  0.4199576800001739   F   F   F
  0.0754872572765848  0.8719906757681192  0.4829941554854786   F   F   F
  0.7004647711973604  0.8827395858851493  0.4326352913293690   F   F   F
  0.7304497496822239  0.1035103720047267  0.5429279681019846   T   T   T
  0.9189317868362711  0.3571603363776342  0.6320187340331885   T   T   T
  0.7350484969767466  0.9070975034367972  0.6128783470422985   T   T   T
  0.6251219543867705  0.5825778729354103  0.4863787091564407   F   F   F
  0.5565732987385132  0.6848869112572521  0.4672494240254113   F   F   F
  0.4263395800116301  0.2992691504343731  0.5548594149825499   T   T   T
  0.9782900938336432  0.7834275044788451  0.4767956400891721   F   F   F
  0.6537111195978588  0.6489496522188155  0.6339814121815024   T   T   T
  0.3969211321527319  0.8002723766184863  0.5156920980171655   T   T   T
  0.6026900685395375  0.5728493226453399  0.3856709925442061   F   F   F
  0.7186272925095474  0.6865509020563844  0.5572679116062037   T   T   T
  0.1462337277423667  0.4210635847245087  0.6192482741969085   T   T   T
  0.0655092580969555  0.6030797495592818  0.5421494003947178   T   T   T
  0.8184397232786104  0.9395695038338593  0.5363891106454736   T   T   T
  0.8282155306614529  0.4105690135976313  0.4519033357708794   F   F   F
  0.5277690983742156  0.3511044442986677  0.5304358791920797   T   T   T
  0.7362364497388725  0.5544029326706871  0.5949688050739037   T   T   T
  0.5574339360995921  0.2276149760508730  0.3949085375269945   F   F   F
  0.8059640829904496  0.3115964413438662  0.3832928600033014   F   F   F
  0.2374462167629617  0.0084346213459412  0.5079195554207132   F   F   F
  0.6923733063032035  0.8315024196176440  0.5411499973034052   T   T   T
  0.9234883030858286  0.0042891262823607  0.5531248831791189   T   T   T
  0.5257372223541736  0.3729649904546407  0.3985559351687087   F   F   F
  0.4682615947331223  0.0426051740249760  0.5465148301334839   T   T   T
  0.8379954764076487  0.1497669085190287  0.5397238711707165   T   T   T
  0.5379032530424511  0.1716013601855623  0.4862370923690094   F   F   F
  0.3501934425152129  0.2417926033060667  0.4396363938456391   F   F   F
  0.0117603228167909  0.0175977707736195  0.3352437574830063   F   F   F
  0.4609385655304146  0.6478670177663075  0.6831184224045159   T   T   T
  0.6549652215522387  0.9805813751821335  0.3792282539811964   F   F   F
  0.0762933429470323  0.7412101282781053  0.4358810225764744   F   F   F
  0.4523839725958956  0.4564319326476571  0.5523134562644165   T   T   T
  0.7192194366265101  0.7556047222177824  0.3795829994963287   F   F   F
  0.4481935280286041  0.7523734022872320  0.6006680010075047   T   T   T
  0.7525510591055778  0.7645084462755080  0.4762954835743188   F   F   F
  0.7796674843050819  0.1757433974572410  0.6207142521304297   T   T   T
  0.9932746155468879  0.3631973442958982  0.4484029789284991   F   F   F
  0.5284509419704362  0.5661419439435644  0.5265599134689530   T   T   T
  0.8167775852155614  0.5542456053436881  0.4234422052650615   F   F   F
  0.2366811326802571  0.2000268312485005  0.6048773959043874   T   T   T
  0.2035333057163413  0.8858851869526992  0.4705336293601906   F   F   F
  0.2402329082281509  0.6141996131100104  0.5224327147576255   T   T   T
  0.0610004584512489  0.6805063165658136  0.6240008536317200   T   T   T
  0.0460740722049948  0.6575305630493702  0.3541786312221902   F   F   F
  0.8005171880783966  0.0334123309297171  0.6057475383149902   T   T   T
  0.5379909097114037  0.0828813626538435  0.4045027517534765   F   F   F
  0.6041106442698493  0.3696756276991549  0.6044805550550781   T   T   T
  0.8615461075340960  0.0592647203656895  0.3692063291070653   F   F   F
  0.0949113079819810  0.2042067062767115  0.4670823258906296   F   F   F
  0.1715480421070556  0.2585186361602438  0.5307047061555165   T   T   T
  0.6409886548841044  0.7596225911080343  0.4548155821771759   F   F   F
  0.4367877834064799  0.4649523517738814  0.3864132536704121   F   F   F
  0.5739710784429951  0.1117250703583834  0.5704869026078067   T   T   T
  0.1514377462021059  0.6485918943738086  0.3889583608347778   F   F   F
  0.2677397900769023  0.6575214022950394  0.3923062966030031   F   F   F
  0.4402584600309113  0.3773820531868710  0.4703244327181508   F   F   F
  0.2380096658898908  0.2136950002304343  0.4299011866524156   F   F   F
  0.0727933149063270  0.2039971203812606  0.5621176157362446   T   T   T
  0.8442186863958627  0.5999586370842021  0.5994652102771878   T   T   T
  0.6211794284267499  0.3351237474733185  0.4109054511829983   F   F   F
  0.6026669933739228  0.9467105367042739  0.4672234595428864   F   F   F
  0.0313853912181870  0.2504736999951049  0.3889918752683103   F   F   F
  0.6075401929485416  0.2497919232269522  0.5484298456897040   T   T   T
  0.1327997263300347  0.9935385154496431  0.4794870772378774   F   F   F
  0.0798084032273791  0.3350761870829443  0.5123180534027789   T   T   T
  0.3726763560846518  0.1574148439923261  0.5693570691133130   T   T   T
  0.0659718435931746  0.7513745817782016  0.5356573600447525   T   T   T
  0.6664883802866158  0.4705687484731200  0.4300115561107633   F   F   F
  0.7987574069266807  0.7842324252078656  0.5644926187305871   T   T   T
  0.7038385586134339  0.0123923042067917  0.4701845621740760   F   F   F
  0.5958827791662105  0.6862968012202990  0.5544672880961347   T   T   T
  0.7228402998664550  0.3488685249886745  0.4516681052539584   F   F   F
  0.9770421192498037  0.3697902624312151  0.5470514656630796   T   T   T
  0.1577597099648050  0.6841331100867764  0.5701900017155237   T   T   T
  0.6333338448107071  0.3819669501739194  0.5078007023299378   F   F   F
  0.8195099565213985  0.4524560780418386  0.6058176926846087   T   T   T
  0.9585781980894982  0.0824269152768693  0.4169530046787957   F   F   F
  0.2822867489330905  0.2509789225808441  0.5186388688620733   T   T   T
  0.2492575497532457  0.4982167600544329  0.4610556955705079   F   F   F
  0.2726282587163593  0.9037236462396334  0.5676832759704791   T   T   T
  0.2036681493187374  0.7407570403557958  0.4868887178860462   F   F   F
  0.1471234534495878  0.5312537475793778  0.4925449251270068   F   F   F
  0.2249194742964626  0.4785757166298439  0.5568414165726315   T   T   T
  0.9114169782859139  0.5079284690934998  0.4737188145108960   F   F   F
  0.8697881761182845  0.7597439814306670  0.4641535209108483   F   F   F
  0.7381202078118394  0.1480184894441194  0.4452296472671977   F   F   F
  0.2221834364607460  0.9849650607116095  0.4079468165165281   F   F   F
  0.2520308498655771  0.4581476463823844  0.6490690097168244   T   T   T
  0.6302186254687339  0.9381144860365136  0.5939147727882752   T   T   T
  0.4102232653459482  0.8442462629143838  0.4234373851432949   F   F   F
  0.9177713527308601  0.2512221645748909  0.5082451459005242   F   F   F
  0.1325470584190001  0.4987199847418260  0.3322726622007864   F   F   F
  0.1551476808853849  0.3587071261215939  0.3105604161752922   F   F   F
  0.3730051452693531  0.1860909141715441  0.3479534200993727   F   F   F
  0.0345723447447437  0.3479751146785133  0.6332103095582912   T   T   T
  0.5726892607782261  0.3120520622941429  0.3200996781806822   F   F   F
  0.2449913864398338  0.8275999461439235  0.6500521682477566   T   T   T
  0.2073742988973706  0.7035889206128447  0.3103690611938177   F   F   F
  0.2753744117793318  0.4473751699592941  0.3673758273212613   F   F   F
  0.3653508124869589  0.6527705030914746  0.3422207943191113   F   F   F
  0.2263808502218509  0.1113646949552845  0.3581188824802055   F   F   F
  0.2412033350308818  0.2512620985375591  0.3293429668079640   F   F   F
  0.5012729261715735  0.9474854927868895  0.4548416832162587   F   F   F
  0.5506117657904174  0.8821077188561182  0.5342325540558279   T   T   T
  0.5456907178960175  0.7050252256205402  0.6364167401627039   T   T   T
  0.4781959404464964  0.1745351066619761  0.5964962184571226   T   T   T
  0.2615471022259088  0.7491086945631175  0.5695450124663303   T   T   T
  0.4442688499087955  0.8981814879198186  0.5830548333082763   T   T   T
  0.7649304557147012  0.6716819032812429  0.6496953281523143   T   T   T
  0.8447513138331482  0.8868335175971129  0.6227146837011545   T   T   T
  0.6402813881856352  0.7943829940473948  0.6207144348193614   T   T   T
  0.0076635962764065  0.0883371843858162  0.6030556941486140   T   T   T
  0.2851042089719570  0.0553768617689522  0.5938089336868758   T   T   T
  0.5041093127118924  0.0244655411464659  0.6286471781562384   T   T   T
  0.4354742476357136  0.4760662917894614  0.7046873339547918   T   T   T
  0.0832252792583148  0.6616041716390059  0.4064130837160320   F   F   F
  0.4092464218197276  0.8174799275552249  0.5753800635660694   T   T   T
  0.8417638189676641  0.4966369860369756  0.4678389696388976   F   F   F
  0.0170894936830806  0.0456659097568491  0.3936113541928139   F   F   F
  0.0147002066459194  0.3393741445575033  0.3910814136036507   F   F   F
  0.0090411197581603  0.1697714972708474  0.5722710772331369   T   T   T
  0.6094551584196458  0.7126424409972042  0.6114454342261088   T   T   T
  0.2140432797099576  0.5313222910965592  0.5096496850001793   T   T   T
  0.9150621278077512  0.8107448082659962  0.4962545438487924   F   F   F
  0.5205785424995497  0.1656394969314336  0.4259865881079392   F   F   F
  0.4186472562164454  0.2225234887895393  0.5892013524729893   T   T   T
  0.0834525281692322  0.1943559478997373  0.4069808717903316   F   F   F
  0.7018979345349692  0.1000301253312179  0.4873230277072056   F   F   F
  0.6650593546526979  0.9532213343124246  0.4374764361266446   F   F   F
  0.6500987440092844  0.5592109279009350  0.4301508871204761   F   F   F
  0.1984606475676856  0.9676661022331814  0.4639906909803460   F   F   F
  0.2140472240888701  0.4225281475371028  0.6035417629767384   T   T   T
  0.6735027009805550  0.8685679152036585  0.5944978471276489   T   T   T
  0.2163530047966911  0.6966359959182293  0.5385720853555577   T   T   T
  0.3687891183983183  0.7903116041479185  0.4592092972079129   F   F   F
  0.7972119449378241  0.9433154422723240  0.5954908075935184   T   T   T
  0.8795057910943130  0.9672526674312169  0.5119467974642329   T   T   T
  0.5757084487804002  0.6294413866249792  0.5113393185526134   T   T   T
  0.5897210764401989  0.1701401869407757  0.5253720475740371   T   T   T
  0.8581223412116760  0.2072971031878166  0.4951759473310489   F   F   F
  0.8349397758715388  0.6589425186192485  0.6458707917986971   T   T   T
  0.1337385207956885  0.4155027744683589  0.3568722791356792   F   F   F
  0.7906552883383855  0.3351231164788687  0.4418726542293072   F   F   F
  0.3991760968159852  0.2326787147761138  0.3960031981861079   F   F   F
  0.8556600324123484  0.8050906636392207  0.5964414250648922   T   T   T
  0.2831644698416944  0.9887991081671139  0.5492833483135133   T   T   T
  0.0230747323006639  0.3856313854262192  0.5022455100715747   F   F   F
  0.5745593848382812  0.7506739518051618  0.4355643604055432   F   F   F
  0.2302409542512010  0.8077843674007302  0.4519695445397645   F   F   F
  0.5937160074633989  0.3385723386036765  0.5481518248044140   T   T   T
  0.9752536728728567  0.3278163732936938  0.6024520340369924   T   T   T
  0.8889063590695160  0.0805928697263880  0.4242001869335610   F   F   F
  0.1047166963841200  0.2502387075413112  0.5178639692993693   T   T   T
  0.0481456608991806  0.7882209642649106  0.4826301941714349   F   F   F
  0.2320319755439275  0.2611793958162656  0.5609871220812827   T   T   T
  0.5614078070968063  0.3129691405622810  0.3812261074005363   F   F   F
  0.4779279332976542  0.6814239210573013  0.6280455761819513   T   T   T
  0.2811769011906278  0.8254319075098385  0.5979491415139412   T   T   T
  0.2085008253050660  0.6985837153311537  0.3717945352858223   F   F   F
  0.7399601262423118  0.7658731145153620  0.5358199688322499   T   T   T
  0.9862465060037007  0.0451493646407194  0.5505238325772603   T   T   T
  0.7031045578374420  0.7920020239896833  0.4342603982179797   F   F   F
  0.7882027749195437  0.1141814135521957  0.5766415661372694   T   T   T
  0.4563138980148482  0.3836354658542269  0.4092878915485586   F   F   F
  0.4503090023596706  0.9879081003634312  0.5949293604674128   T   T   T
  0.5086142790598707  0.0937426042257013  0.5860695817060216   T   T   T
  0.2442471516899545  0.4255901947085060  0.4209471039025985   F   F   F
  0.6585253437214932  0.3851859816758205  0.4503479098948588   F   F   F
  0.4605289671631483  0.3704593650581899  0.5284025171763527   T   T   T
  0.3372993678552236  0.6451264125930442  0.3990830096962271   F   F   F
  0.8027534857607679  0.5319802804444100  0.5795530627012967   T   T   T
  0.0692097893945274  0.9540430265313378  0.4805055068825654   F   F   F
  0.2119075788647606  0.1996381921392936  0.3735965933534687   F   F   F
  0.0782328566383796  0.5491688658889450  0.4946876202126236   F   F   F
  0.5575701889662170  0.9075239694569890  0.4747302534090920   F   F   F
  0.7178316445843076  0.6396888853038222  0.6096878723161685   T   T   T
  0.2866421242385897  0.2652856093763347  0.4591107728955209   F   F   F
  0.0875519879739283  0.6800934337967000  0.5677186152432963   T   T   T
  0.3541273656025976  0.0716367549701616  0.5786464224854605   T   T   T
  0.4907438440686197  0.5289792493758436  0.5709477843927877   T   T   T
  0.4815211664960193  0.5404450515608242  0.6800371595184055   T   T   T

             NaN             NaN             NaN
             NaN             NaN             NaN
             NaN             NaN             NaN
             NaN             NaN             NaN
             NaN             NaN             NaN
             NaN             NaN             NaN
             NaN             NaN             NaN
             NaN             NaN             NaN
             NaN             NaN             NaN
             NaN             NaN             NaN
             NaN             NaN             NaN
             NaN             NaN             NaN
             NaN             NaN             NaN
             NaN             NaN             NaN
             NaN             NaN             NaN
             NaN             NaN             NaN
             NaN             NaN             NaN
             NaN             NaN             NaN
             NaN             NaN             NaN
             NaN             NaN             NaN
             NaN             NaN             NaN
             NaN             NaN             NaN
             NaN             NaN             NaN
             NaN             NaN             NaN
             NaN             NaN             NaN
             NaN             NaN             NaN
             NaN             NaN             NaN
             NaN             NaN             NaN
             NaN             NaN             NaN
             NaN             NaN             NaN
             NaN             NaN             NaN
             NaN             NaN             NaN
             NaN             NaN             NaN
             NaN             NaN             NaN
             NaN             NaN             NaN
             NaN             NaN             NaN
             NaN             NaN             NaN
             NaN             NaN             NaN
             NaN             NaN             NaN
             NaN             NaN             NaN
             NaN             NaN             NaN
             NaN             NaN             NaN
             NaN             NaN             NaN
             NaN             NaN             NaN
             NaN             NaN             NaN
             NaN             NaN             NaN
             NaN             NaN             NaN
             NaN             NaN             NaN
             NaN             NaN             NaN
             NaN             NaN             NaN
             NaN             NaN             NaN
             NaN             NaN             NaN
             NaN             NaN             NaN
             NaN             NaN             NaN
             NaN             NaN             NaN
             NaN             NaN             NaN
             NaN             NaN             NaN
             NaN             NaN             NaN
             NaN             NaN             NaN
             NaN             NaN             NaN
             NaN             NaN             NaN
             NaN             NaN             NaN
             NaN             NaN             NaN
             NaN             NaN             NaN
             NaN             NaN             NaN
             NaN             NaN             NaN
             NaN             NaN             NaN
             NaN             NaN             NaN
             NaN             NaN             NaN
             NaN             NaN             NaN
             NaN             NaN             NaN
             NaN             NaN             NaN
             NaN             NaN             NaN
             NaN             NaN             NaN
             NaN             NaN             NaN
             NaN             NaN             NaN
             NaN             NaN             NaN
             NaN             NaN             NaN
             NaN             NaN             NaN
             NaN             NaN             NaN
             NaN             NaN             NaN
             NaN             NaN             NaN
             NaN             NaN             NaN
             NaN             NaN             NaN
             NaN             NaN             NaN
             NaN             NaN             NaN
             NaN             NaN             NaN
             NaN             NaN             NaN
             NaN             NaN             NaN
             NaN             NaN             NaN
             NaN             NaN             NaN
             NaN             NaN             NaN
             NaN             NaN             NaN
             NaN             NaN             NaN
             NaN             NaN             NaN
             NaN             NaN             NaN
             NaN             NaN             NaN
             NaN             NaN             NaN
             NaN             NaN             NaN
             NaN             NaN             NaN
             NaN             NaN             NaN
             NaN             NaN             NaN
             NaN             NaN             NaN
             NaN             NaN             NaN
             NaN             NaN             NaN
             NaN             NaN             NaN
             NaN             NaN             NaN
             NaN             NaN             NaN
             NaN             NaN             NaN
             NaN             NaN             NaN
             NaN             NaN             NaN
             NaN             NaN             NaN
             NaN             NaN             NaN
             NaN             NaN             NaN
             NaN             NaN             NaN
             NaN             NaN             NaN
             NaN             NaN             NaN
             NaN             NaN             NaN
             NaN             NaN             NaN
             NaN             NaN             NaN
             NaN             NaN             NaN
             NaN             NaN             NaN
             NaN             NaN             NaN
             NaN             NaN             NaN
             NaN             NaN             NaN
             NaN             NaN             NaN
             NaN             NaN             NaN
             NaN             NaN             NaN
             NaN             NaN             NaN
             NaN             NaN             NaN
             NaN             NaN             NaN
             NaN             NaN             NaN
             NaN             NaN             NaN
             NaN             NaN             NaN
             NaN             NaN             NaN
             NaN             NaN             NaN
             NaN             NaN             NaN
             NaN             NaN             NaN
             NaN             NaN             NaN
             NaN             NaN             NaN
             NaN             NaN             NaN
             NaN             NaN             NaN
             NaN             NaN             NaN
             NaN             NaN             NaN
             NaN             NaN             NaN
             NaN             NaN             NaN
             NaN             NaN             NaN
             NaN             NaN             NaN
             NaN             NaN             NaN
             NaN             NaN             NaN
             NaN             NaN             NaN
             NaN             NaN             NaN
             NaN             NaN             NaN
             NaN             NaN             NaN
             NaN             NaN             NaN
             NaN             NaN             NaN
             NaN             NaN             NaN
             NaN             NaN             NaN
             NaN             NaN             NaN
             NaN             NaN             NaN
             NaN             NaN             NaN
             NaN             NaN             NaN
             NaN             NaN             NaN
             NaN             NaN             NaN
             NaN             NaN             NaN
             NaN             NaN             NaN
             NaN             NaN             NaN
             NaN             NaN             NaN
             NaN             NaN             NaN
             NaN             NaN             NaN
             NaN             NaN             NaN
             NaN             NaN             NaN
             NaN             NaN             NaN
             NaN             NaN             NaN
             NaN             NaN             NaN
             NaN             NaN             NaN
             NaN             NaN             NaN
             NaN             NaN             NaN
             NaN             NaN             NaN
             NaN             NaN             NaN
             NaN             NaN             NaN
             NaN             NaN             NaN
             NaN             NaN             NaN
             NaN             NaN             NaN
             NaN             NaN             NaN
             NaN             NaN             NaN
             NaN             NaN             NaN
             NaN             NaN             NaN
             NaN             NaN             NaN
             NaN             NaN             NaN
             NaN             NaN             NaN
             NaN             NaN             NaN
             NaN             NaN             NaN