 C  H  O Si  W                          
   1.0000000000000000     
    23.4112945954000011    0.0000000000000000    0.0000000000000000
     0.0000000000000000   18.1212369514000002    0.0000000000000000
     0.0000000000000000    0.0000000000000000   26.8833665072999999
   C    H    O    Si   W 
     4    52   154    65     1
Selective dynamics
Direct
  0.5918896794330877  0.4335243427529818  0.7361254090968856   T   T   T
  0.5592398430261909  0.5017164529828761  0.7248579983919541   T   T   T
  0.5654593430007040  0.3599543678088182  0.7439360022678727   T   T   T
  0.5524208639944703  0.5515170421620823  0.7724922885745613   T   T   T
  0.7616554004663669  0.1027604957812969  0.6514415440175867   F   F   F
  0.9264276758775409  0.2786689628389283  0.3563349293400009   F   F   F
  0.7933396966928186  0.2072788972397461  0.3734565163880745   F   F   F
  0.9745391127316694  0.9436086005532900  0.3253027906056829   F   F   F
  0.6257326647787878  0.9634728499897562  0.3752311999972449   F   F   F
  0.8205383986272707  0.9950066635937915  0.3689926296547128   F   F   F
  0.7499930738495308  0.1411787558468731  0.4580381926778543   F   F   F
  0.9152953961323291  0.2493872850686145  0.5101672230407956   F   F   F
  0.5834928632816769  0.3042635462298904  0.3059271726651787   F   F   F
  0.8924342638471146  0.3356944644664921  0.6171969074367070   F   F   F
  0.5871569443324276  0.3598867812149109  0.6145590465079493   F   F   F
  0.5937057771179184  0.8707307315695942  0.5779451004043352   F   F   F
  0.0337801916950085  0.3367778575183351  0.6535112093570774   F   F   F
  0.9352705076763712  0.4195142257504756  0.4541014552468710   F   F   F
  0.7461383787735159  0.5303119924306614  0.4224881911837883   F   F   F
  0.7972419173737961  0.3810069774729570  0.6337508814280426   F   F   F
  0.5911020174091490  0.5686828267211084  0.3780347436188976   F   F   F
  0.7184337867802384  0.6459327858135424  0.3834605945055571   F   F   F
  0.8411529142292764  0.5424265960688572  0.4195961671555111   F   F   F
  0.0047645486475076  0.6037981492295330  0.3577783004107076   F   F   F
  0.8283586993267491  0.7123566734117333  0.4679422553080954   F   F   F
  0.8788077525345628  0.5991158068190359  0.7207425527112861   F   F   F
  0.5199903139612303  0.9855647615614487  0.4217030704774842   F   F   F
  0.2230945721612159  0.9801548351936802  0.3932050219465495   F   F   F
  0.2163736907482345  0.2378514580028224  0.3192303272980936   F   F   F
  0.1575010503616241  0.3298062300070157  0.2789829167401123   F   F   F
  0.3415468765692253  0.1555857055490506  0.3307727584112428   F   F   F
  0.2227158616647102  0.0457589260230407  0.3227384335196248   F   F   F
  0.5112785764908239  0.8261299581364270  0.5468652766716247   F   F   F
  0.3730646077736850  0.2372417797658741  0.6474836439316789   F   F   F
  0.2438407597014631  0.0935433324581396  0.5986060774499649   F   F   F
  0.3153809713091036  0.4871364645735810  0.4424346656312608   F   F   F
  0.4089561837294582  0.4387348586870772  0.4056905975982730   F   F   F
  0.3984995032241372  0.7931136076502554  0.3887867966224334   F   F   F
  0.2442023571188656  0.6554300787776768  0.2943268807443218   F   F   F
  0.3117413815567005  0.4184757135368571  0.3692576443915385   F   F   F
  0.4054742948844066  0.5842796534641153  0.3388198885480591   F   F   F
  0.1393576205880507  0.4879736465794622  0.3519294596467617   F   F   F
  0.5932693451318087  0.6979871284243586  0.3523979868156601   F   F   F
  0.4690068301459220  0.8614274692381869  0.4438283837725479   F   F   F
  0.1230466412230271  0.3259697830991470  0.6139443803498850   F   F   F
  0.0736099281785485  0.6641466161899814  0.6461589028064267   F   F   F
  0.2466157760897616  0.3890493974271720  0.6819527512517638   F   F   F
  0.2475736245118370  0.8159012012843689  0.6696599332832207   F   F   F
  0.6375959716619874  0.4404179929151795  0.7435616515202526   T   T   T
  0.5837018796692064  0.5351935657737954  0.6974517893865695   T   T   T
  0.5312441487904422  0.3622017256751562  0.7724331007022656   T   T   T
  0.5432207067188486  0.3400047179512242  0.7100987009441013   T   T   T
  0.5969974351367711  0.3181261238650208  0.7548889805301684   T   T   T
  0.5259803959951412  0.5236799510629595  0.8006004432466298   T   T   T
  0.5947912376666906  0.5627055316937870  0.7888079646424586   T   T   T
  0.5326785484838723  0.6047845116007196  0.7627384349212036   T   T   T
  0.3689417337945073  0.6483550974205130  0.4390000177989322   F   F   F
  0.3468156499810249  0.5040338679473777  0.4203881275781143   F   F   F
  0.8607742195601062  0.5665289973130498  0.6968791725916930   F   F   F
  0.3490349787069249  0.9585795847229122  0.5303664779178305   F   F   F
  0.0332468397117438  0.9323317599499958  0.5285348081139603   F   F   F
  0.6363554822990451  0.0788685455599989  0.4893766723794641   F   F   F
  0.0686461464807948  0.0522654214745515  0.3951107345583225   F   F   F
  0.4518995424319527  0.1295623248292515  0.4205972814427668   F   F   F
  0.8058841492861291  0.2136501796919177  0.4831666074103040   F   F   F
  0.9736568909693943  0.1819939400271835  0.5986776788300006   F   F   F
  0.2747652928840907  0.2991728710101214  0.4485122250900346   F   F   F
  0.5563541661963498  0.7750912911781072  0.4417510122690658   F   F   F
  0.3919217369877543  0.9730971387512284  0.6195951093112768   F   F   F
  0.1775172398589788  0.3499684493290118  0.4052731245300478   F   F   F
  0.8667676664714818  0.6840359440426838  0.6373536927143135   F   F   F
  0.8656960102276017  0.9671769320775354  0.4670384592975196   F   F   F
  0.3010471365896024  0.7609368348742791  0.4579252567998537   F   F   F
  0.4216109456219570  0.2612522170148708  0.3795963030273342   F   F   F
  0.8113053090370244  0.4653183138531745  0.5202027907659499   F   F   F
  0.9835276356487626  0.0728400098302942  0.5212098592397538   F   F   F
  0.5178757642358462  0.4546217271640600  0.6275557479042391   F   F   F
  0.0345364061182565  0.9199477616519545  0.4294052572495062   F   F   F
  0.9630365419446250  0.3031953079439518  0.3512576249606170   F   F   F
  0.0696266904488567  0.3361057655302346  0.3763717815531962   F   F   F
  0.2082956575310035  0.7286442941956537  0.3953601014000157   F   F   F
  0.0389012629134911  0.4191019155798159  0.4991087535393461   F   F   F
  0.2400796297715146  0.2861370823350597  0.5878311636048466   F   F   F
  0.3983360363430748  0.1949863706219901  0.6450468393095221   F   F   F
  0.4569454064376046  0.5593100416644887  0.5859592507629046   F   F   F
  0.9098850101739089  0.7489954600966655  0.5574734107418564   F   F   F
  0.8691272713299156  0.1080433423588403  0.4422783307318099   F   F   F
  0.5725767945756743  0.6673318528661909  0.3761317316733468   F   F   F
  0.1424265590957958  0.1591254988132746  0.3759722435750490   F   F   F
  0.3509067572249975  0.7649442856655071  0.6065716147696492   F   F   F
  0.9109960497951874  0.8450475714256882  0.4831796236075121   F   F   F
  0.0613380104910135  0.5368717058331640  0.4422534820284341   F   F   F
  0.7083390277084121  0.5551665518466606  0.4199576800001736   F   F   F
  0.0754872572765848  0.8168068048945472  0.4829941554854784   F   F   F
  0.7004647711973604  0.8275557150115773  0.4326352913293690   F   F   F
  0.7302689784362073  0.0491763388619191  0.5429641680700641   F   F   F
  0.9199329167970944  0.3025265231723182  0.6328015332683634   F   F   F
  0.7352094764593318  0.8530410888197792  0.6129544063662422   F   F   F
  0.6251219543867705  0.5273940020615839  0.4863787091564404   F   F   F
  0.5565732987385132  0.6297030403834256  0.4672494240254110   F   F   F
  0.4253656004249677  0.2467326754332433  0.5552386706777384   F   F   F
  0.9782900938336425  0.7282436336050182  0.4767956400891720   F   F   F
  0.6544525160232979  0.5941301687510219  0.6334413913010053   F   F   F
  0.3968815860998447  0.7469605420455281  0.5151062610112760   F   F   F
  0.6026900685395375  0.5176654517715136  0.3856709925442061   F   F   F
  0.7199420966078094  0.6307682986537486  0.5570470289701035   F   F   F
  0.1494057029405624  0.3651502137852418  0.6231444759714435   F   F   F
  0.0661421650677667  0.5484413330195252  0.5420098240135900   F   F   F
  0.8190357794043805  0.8842168913388875  0.5366907879089311   F   F   F
  0.8282155306614527  0.3553851427237973  0.4519033357708793   F   F   F
  0.5275285382337458  0.2965498258651920  0.5312563354479138   F   F   F
  0.7372524601090973  0.4987291804984721  0.5955900725379024   F   F   F
  0.5574339360995921  0.1724311051770471  0.3949085375269945   F   F   F
  0.8059640829904495  0.2564125704700402  0.3832928600033014   F   F   F
  0.2374462167629616  0.9532507504721153  0.5079195554207132   F   F   F
  0.6931906452087517  0.7761136572358751  0.5415212802637299   F   F   F
  0.9236699418507186  0.9499352047438165  0.5529650473455874   F   F   F
  0.5257372223541736  0.3177811195808147  0.3985559351687087   F   F   F
  0.4686187698360413  0.9901885431071236  0.5462032932137859   F   F   F
  0.8377384329211850  0.0948492597901947  0.5397608582568409   F   F   F
  0.5379032530424510  0.1164174893117362  0.4862370923690094   F   F   F
  0.3501934425152129  0.1866087324322407  0.4396363938456389   F   F   F
  0.0117603228167908  0.9624138998997935  0.3352437574830063   F   F   F
  0.4547491169734386  0.5984425763290631  0.6781262705641495   F   F   F
  0.6549652215522386  0.9253975043083074  0.3792282539811964   F   F   F
  0.0762933429470323  0.6860262574042792  0.4358810225764742   F   F   F
  0.4537423946149062  0.4037633036887556  0.5527296471234422   F   F   F
  0.7192194366265099  0.7004208513439565  0.3795829994963285   F   F   F
  0.4516483657828871  0.7041621759209846  0.5987665238576554   F   F   F
  0.7525510591055777  0.7093245754016806  0.4762954835743187   F   F   F
  0.7790921185283821  0.1206069128146225  0.6210430170213215   F   F   F
  0.9932746155468877  0.3080134734220721  0.4484029789284989   F   F   F
  0.5332989604344149  0.5085823396157991  0.5308554660274396   F   F   F
  0.8167775852155614  0.4990617344698620  0.4234422052650615   F   F   F
  0.2361943936803641  0.1455830595062437  0.6054175591848505   F   F   F
  0.2035333057163413  0.8307013160791428  0.4705336293601903   F   F   F
  0.2399153542688026  0.5588091251111962  0.5228786563694783   F   F   F
  0.0611268665306710  0.6253692497264538  0.6238557458721630   F   F   F
  0.0460740722049948  0.6023466921755443  0.3541786312221902   F   F   F
  0.8008574468377745  0.9785723290561137  0.6055581817119133   F   F   F
  0.5379909097114037  0.0276974917800175  0.4045027517534763   F   F   F
  0.6043929402591672  0.3130043040448172  0.6050770501138985   F   F   F
  0.8615461075340960  0.0040808494918636  0.3692063291070653   F   F   F
  0.0949113079819810  0.1490228354028815  0.4670823258906296   F   F   F
  0.1714773525353692  0.2043114924796043  0.5309880916852165   F   F   F
  0.6409886548841044  0.7044387202342079  0.4548155821771758   F   F   F
  0.4367877834064799  0.4097684809001905  0.3864132536704119   F   F   F
  0.5741628016797122  0.0587714209876253  0.5711948612078359   F   F   F
  0.1514377462021059  0.5934080234999826  0.3889583608347777   F   F   F
  0.2677397900769023  0.6023375314212132  0.3923062966030031   F   F   F
  0.4402584600309112  0.3221981823130449  0.4703244327181508   F   F   F
  0.2380096658898907  0.1585111293566044  0.4299011866524154   F   F   F
  0.0730301547302687  0.1496740208188996  0.5625456710418177   F   F   F
  0.8453162067807796  0.5440759511489333  0.5998486751863794   F   F   F
  0.6211794284267498  0.2799398765994923  0.4109054511829981   F   F   F
  0.6026669933739228  0.8915266658304475  0.4672234595428861   F   F   F
  0.0313853912181870  0.1952898291212790  0.3889918752683101   F   F   F
  0.6082588872451993  0.1953797948153948  0.5474202331497864   F   F   F
  0.1327997263300347  0.9383546445758171  0.4794870772378772   F   F   F
  0.0801558584291300  0.2802244067118949  0.5118432078946995   F   F   F
  0.3726032815322782  0.1047005722026100  0.5684748519293947   F   F   F
  0.0661961226778374  0.6967787935227108  0.5357562147847403   F   F   F
  0.6664883802866157  0.4153848775994291  0.4300115561107631   F   F   F
  0.7995110483399088  0.7294145484295242  0.5641869846050511   F   F   F
  0.7038385586134339  0.9572084333329656  0.4701845621740759   F   F   F
  0.5974959892958722  0.6338113002769106  0.5535562590519945   F   F   F
  0.7228402998664549  0.2936846541148483  0.4516681052539582   F   F   F
  0.9774265809535478  0.3145301137508412  0.5472697269354114   F   F   F
  0.1581654257546674  0.6300132304277426  0.5705101549884048   F   F   F
  0.6333338448107071  0.3267830793000925  0.5078007023299378   F   F   F
  0.8207154194350466  0.3964588164883907  0.6058981291931715   F   F   F
  0.9585781980894978  0.0272430444030434  0.4169530046787955   F   F   F
  0.2821066817018973  0.1950243969602212  0.5186415440271830   F   F   F
  0.2492575497532457  0.4430328891806070  0.4610556955705079   F   F   F
  0.2732179398104506  0.8496513301840594  0.5682633709593148   F   F   F
  0.2036681493187373  0.6855731694819696  0.4868887178860462   F   F   F
  0.1471234534495878  0.4760698767055516  0.4925449251270066   F   F   F
  0.2242965051813499  0.4225602952221834  0.5566582828706075   F   F   F
  0.9114169782859136  0.4527445982196738  0.4737188145108959   F   F   F
  0.8697881761182842  0.7045601105568409  0.4641535209108483   F   F   F
  0.7381202078118392  0.0928346185702935  0.4452296472671975   F   F   F
  0.2221834364607460  0.9297811898377830  0.4079468165165281   F   F   F
  0.2559301367533706  0.4033603722866488  0.6481923962905043   F   F   F
  0.6306701211308905  0.8832033004181312  0.5934441406693267   F   F   F
  0.4102232653459481  0.7890623920408117  0.4234373851432949   F   F   F
  0.9177713527308597  0.1960382937010650  0.5082451459005242   F   F   F
  0.1325470584190001  0.4435361138679994  0.3322726622007863   F   F   F
  0.1551476808853849  0.3035232552477680  0.3105604161752922   F   F   F
  0.3730051452693530  0.1309070432977180  0.3479534200993726   F   F   F
  0.0355426971844963  0.2927202952366414  0.6330230976599438   F   F   F
  0.5726892607782261  0.2568681914203168  0.3200996781806822   F   F   F
  0.2457197595024070  0.7711617178188348  0.6499283905327289   F   F   F
  0.2073742988973706  0.6484050497390186  0.3103690611938177   F   F   F
  0.2753744117793318  0.3921912990854750  0.3673758273212613   F   F   F
  0.3653508124869589  0.5975866322176486  0.3422207943191111   F   F   F
  0.2263808502218509  0.0561808240814585  0.3581188824802055   F   F   F
  0.2412033350308818  0.1960782276637332  0.3293429668079639   F   F   F
  0.5012729261715734  0.8923016219130631  0.4548416832162587   F   F   F
  0.5502128461020490  0.8277710828148628  0.5343934094027887   F   F   F
  0.5458523870210357  0.6473211236043994  0.6357054161092464   F   F   F
  0.4783773900407979  0.1221191169567319  0.5964888840756331   F   F   F
  0.2623176557511542  0.6945152028627462  0.5685927619979338   F   F   F
  0.4425680331638802  0.8474000461468805  0.5815941267852693   F   F   F
  0.7656992429096903  0.6167445217793812  0.6493917449514797   F   F   F
  0.8448916593305569  0.8315020396907258  0.6231736512472068   F   F   F
  0.6405170358301220  0.7396138459896520  0.6210007269675657   F   F   F
  0.0080335807686112  0.0333736060999428  0.6029093006061430   F   F   F
  0.2845429152255079  0.0019335119742649  0.5935356658653319   F   F   F
  0.5031260022986430  0.9720766576918152  0.6288276259598220   F   F   F
  0.4421593688142593  0.4371687072561627  0.7268441706892546   T   T   T
  0.0832252792583148  0.6064203007651798  0.4064130837160320   F   F   F
  0.4093943133735536  0.7657839703961073  0.5743332504346768   F   F   F
  0.8417638189676637  0.4414531151632843  0.4678389696388976   F   F   F
  0.0170894936830805  0.9904820388830231  0.3936113541928137   F   F   F
  0.0147002066459194  0.2841902736836772  0.3910814136036507   F   F   F
  0.0093491396069467  0.1150125543993568  0.5724570903662851   F   F   F
  0.6098824937263814  0.6577994633947597  0.6111168087395029   F   F   F
  0.2139865529361487  0.4759377756978864  0.5097040631212053   F   F   F
  0.9150621278077509  0.7555609373921541  0.4962545438487922   F   F   F
  0.5205785424995497  0.1104556260576075  0.4259865881079392   F   F   F
  0.4186110581444140  0.1694873734520996  0.5892350533038240   F   F   F
  0.0834525281692322  0.1391720770259113  0.4069808717903314   F   F   F
  0.7018979345349692  0.0448462544573900  0.4873230277072054   F   F   F
  0.6650593546526977  0.8980374634385981  0.4374764361266443   F   F   F
  0.6500987440092842  0.5040270570271090  0.4301508871204760   F   F   F
  0.1984606475676856  0.9124822313593555  0.4639906909803457   F   F   F
  0.2160093684637303  0.3671895075672964  0.6040911149529791   F   F   F
  0.6739521628875451  0.8136625938523281  0.5945903579097092   F   F   F
  0.2165887073417068  0.6416865378442651  0.5385404325934218   F   F   F
  0.3687891183983183  0.7351277332740764  0.4592092972079129   F   F   F
  0.7976482662190634  0.8883214237528065  0.5956860464260743   F   F   F
  0.8797755568607144  0.9122280503795679  0.5119457574158872   F   F   F
  0.5763982774241825  0.5746358068597885  0.5119373221722299   F   F   F
  0.5899123776605251  0.1155808789823780  0.5252003567544747   F   F   F
  0.8581223412116756  0.1521132323139867  0.4951759473310489   F   F   F
  0.8356357186093106  0.6036603883828064  0.6458846643906568   F   F   F
  0.1337385207956885  0.3603189035945249  0.3568722791356791   F   F   F
  0.7906552883383853  0.2799392456050427  0.4418726542293072   F   F   F
  0.3991760968159852  0.1774948439022879  0.3960031981861079   F   F   F
  0.8561671020606454  0.7499492313406932  0.5965623564035738   F   F   F
  0.2832310775570477  0.9347101020022421  0.5494254496099416   F   F   F
  0.0230747323006639  0.3304475145523895  0.5022455100715746   F   F   F
  0.5745593848382811  0.6954900809313358  0.4355643604055430   F   F   F
  0.2302409542512009  0.7526004965268882  0.4519695445397645   F   F   F
  0.5936595496248174  0.2837735023053511  0.5481915453678212   F   F   F
  0.9757845411157717  0.2727662542645177  0.6027347532492726   F   F   F
  0.8889063590695159  0.0254089988525621  0.4242001869335610   F   F   F
  0.1047492553123419  0.1953177101905865  0.5178235810536975   F   F   F
  0.0481456608991806  0.7330370933910686  0.4826301941714348   F   F   F
  0.2320448462193028  0.2061020336173556  0.5610077190653229   F   F   F
  0.5614078070968063  0.2577852696884548  0.3812261074005363   F   F   F
  0.4774060586404332  0.6289793427188357  0.6234865016295501   F   F   F
  0.2816795816787661  0.7704906309442521  0.5976477819243584   F   F   F
  0.2085008253050660  0.6433998444573277  0.3717945352858223   F   F   F
  0.7406130478859723  0.7104775537955845  0.5358624775984993   F   F   F
  0.9864327913930282  0.9906134982747119  0.5503003724549913   F   F   F
  0.7031045578374417  0.7368181531158413  0.4342603982179796   F   F   F
  0.7880196280617824  0.0593852254843412  0.5767574118153860   F   F   F
  0.4563138980148480  0.3284515949804003  0.4092878915485585   F   F   F
  0.4496149530162938  0.9362268483363323  0.5945024467634923   F   F   F
  0.5085594893850924  0.0411051950353638  0.5861708686500435   F   F   F
  0.2442471516899545  0.3704063238346720  0.4209471039025985   F   F   F
  0.6585253437214931  0.3300021108019919  0.4503479098948588   F   F   F
  0.4605001439051577  0.3174550652414894  0.5287618082214607   F   F   F
  0.3372993678552234  0.5899425417192177  0.3990830096962270   F   F   F
  0.8037130074421768  0.4762616982733761  0.5798836893538208   F   F   F
  0.0692097893945274  0.8988591556575116  0.4805055068825652   F   F   F
  0.2119075788647606  0.1444543212654636  0.3735965933534686   F   F   F
  0.0782328566383796  0.4939849950151185  0.4946876202126234   F   F   F
  0.5575701889662170  0.8523400985834328  0.4747302534090920   F   F   F
  0.7186447183490614  0.5842810494978821  0.6095505367926251   F   F   F
  0.2866421242385897  0.2101017385025798  0.4591107728955208   F   F   F
  0.0879469098485330  0.6254512694079040  0.5676899239041902   F   F   F
  0.3534923869503004  0.0192348600377059  0.5782318644442626   F   F   F
  0.4891377331417459  0.4780518579378423  0.5734036153775719   F   F   F
  0.4788740968604088  0.4957668904994961  0.6874108158571695   T   T   T

  0.00000000E+00  0.00000000E+00  0.00000000E+00
  0.00000000E+00  0.00000000E+00  0.00000000E+00
  0.00000000E+00  0.00000000E+00  0.00000000E+00
  0.00000000E+00  0.00000000E+00  0.00000000E+00
  0.00000000E+00  0.00000000E+00  0.00000000E+00
  0.00000000E+00  0.00000000E+00  0.00000000E+00
  0.00000000E+00  0.00000000E+00  0.00000000E+00
  0.00000000E+00  0.00000000E+00  0.00000000E+00
  0.00000000E+00  0.00000000E+00  0.00000000E+00
  0.00000000E+00  0.00000000E+00  0.00000000E+00
  0.00000000E+00  0.00000000E+00  0.00000000E+00
  0.00000000E+00  0.00000000E+00  0.00000000E+00
  0.00000000E+00  0.00000000E+00  0.00000000E+00
  0.00000000E+00  0.00000000E+00  0.00000000E+00
  0.00000000E+00  0.00000000E+00  0.00000000E+00
  0.00000000E+00  0.00000000E+00  0.00000000E+00
  0.00000000E+00  0.00000000E+00  0.00000000E+00
  0.00000000E+00  0.00000000E+00  0.00000000E+00
  0.00000000E+00  0.00000000E+00  0.00000000E+00
  0.00000000E+00  0.00000000E+00  0.00000000E+00
  0.00000000E+00  0.00000000E+00  0.00000000E+00
  0.00000000E+00  0.00000000E+00  0.00000000E+00
  0.00000000E+00  0.00000000E+00  0.00000000E+00
  0.00000000E+00  0.00000000E+00  0.00000000E+00
  0.00000000E+00  0.00000000E+00  0.00000000E+00
  0.00000000E+00  0.00000000E+00  0.00000000E+00
  0.00000000E+00  0.00000000E+00  0.00000000E+00
  0.00000000E+00  0.00000000E+00  0.00000000E+00
  0.00000000E+00  0.00000000E+00  0.00000000E+00
  0.00000000E+00  0.00000000E+00  0.00000000E+00
  0.00000000E+00  0.00000000E+00  0.00000000E+00
  0.00000000E+00  0.00000000E+00  0.00000000E+00
  0.00000000E+00  0.00000000E+00  0.00000000E+00
  0.00000000E+00  0.00000000E+00  0.00000000E+00
  0.00000000E+00  0.00000000E+00  0.00000000E+00
  0.00000000E+00  0.00000000E+00  0.00000000E+00
  0.00000000E+00  0.00000000E+00  0.00000000E+00
  0.00000000E+00  0.00000000E+00  0.00000000E+00
  0.00000000E+00  0.00000000E+00  0.00000000E+00
  0.00000000E+00  0.00000000E+00  0.00000000E+00
  0.00000000E+00  0.00000000E+00  0.00000000E+00
  0.00000000E+00  0.00000000E+00  0.00000000E+00
  0.00000000E+00  0.00000000E+00  0.00000000E+00
  0.00000000E+00  0.00000000E+00  0.00000000E+00
  0.00000000E+00  0.00000000E+00  0.00000000E+00
  0.00000000E+00  0.00000000E+00  0.00000000E+00
  0.00000000E+00  0.00000000E+00  0.00000000E+00
  0.00000000E+00  0.00000000E+00  0.00000000E+00
  0.00000000E+00  0.00000000E+00  0.00000000E+00
  0.00000000E+00  0.00000000E+00  0.00000000E+00
  0.00000000E+00  0.00000000E+00  0.00000000E+00
  0.00000000E+00  0.00000000E+00  0.00000000E+00
  0.00000000E+00  0.00000000E+00  0.00000000E+00
  0.00000000E+00  0.00000000E+00  0.00000000E+00
  0.00000000E+00  0.00000000E+00  0.00000000E+00
  0.00000000E+00  0.00000000E+00  0.00000000E+00
  0.00000000E+00  0.00000000E+00  0.00000000E+00
  0.00000000E+00  0.00000000E+00  0.00000000E+00
  0.00000000E+00  0.00000000E+00  0.00000000E+00
  0.00000000E+00  0.00000000E+00  0.00000000E+00
  0.00000000E+00  0.00000000E+00  0.00000000E+00
  0.00000000E+00  0.00000000E+00  0.00000000E+00
  0.00000000E+00  0.00000000E+00  0.00000000E+00
  0.00000000E+00  0.00000000E+00  0.00000000E+00
  0.00000000E+00  0.00000000E+00  0.00000000E+00
  0.00000000E+00  0.00000000E+00  0.00000000E+00
  0.00000000E+00  0.00000000E+00  0.00000000E+00
  0.00000000E+00  0.00000000E+00  0.00000000E+00
  0.00000000E+00  0.00000000E+00  0.00000000E+00
  0.00000000E+00  0.00000000E+00  0.00000000E+00
  0.00000000E+00  0.00000000E+00  0.00000000E+00
  0.00000000E+00  0.00000000E+00  0.00000000E+00
  0.00000000E+00  0.00000000E+00  0.00000000E+00
  0.00000000E+00  0.00000000E+00  0.00000000E+00
  0.00000000E+00  0.00000000E+00  0.00000000E+00
  0.00000000E+00  0.00000000E+00  0.00000000E+00
  0.00000000E+00  0.00000000E+00  0.00000000E+00
  0.00000000E+00  0.00000000E+00  0.00000000E+00
  0.00000000E+00  0.00000000E+00  0.00000000E+00
  0.00000000E+00  0.00000000E+00  0.00000000E+00
  0.00000000E+00  0.00000000E+00  0.00000000E+00
  0.00000000E+00  0.00000000E+00  0.00000000E+00
  0.00000000E+00  0.00000000E+00  0.00000000E+00
  0.00000000E+00  0.00000000E+00  0.00000000E+00
  0.00000000E+00  0.00000000E+00  0.00000000E+00
  0.00000000E+00  0.00000000E+00  0.00000000E+00
  0.00000000E+00  0.00000000E+00  0.00000000E+00
  0.00000000E+00  0.00000000E+00  0.00000000E+00
  0.00000000E+00  0.00000000E+00  0.00000000E+00
  0.00000000E+00  0.00000000E+00  0.00000000E+00
  0.00000000E+00  0.00000000E+00  0.00000000E+00
  0.00000000E+00  0.00000000E+00  0.00000000E+00
  0.00000000E+00  0.00000000E+00  0.00000000E+00
  0.00000000E+00  0.00000000E+00  0.00000000E+00
  0.00000000E+00  0.00000000E+00  0.00000000E+00
  0.00000000E+00  0.00000000E+00  0.00000000E+00
  0.00000000E+00  0.00000000E+00  0.00000000E+00
  0.00000000E+00  0.00000000E+00  0.00000000E+00
  0.00000000E+00  0.00000000E+00  0.00000000E+00
  0.00000000E+00  0.00000000E+00  0.00000000E+00
  0.00000000E+00  0.00000000E+00  0.00000000E+00
  0.00000000E+00  0.00000000E+00  0.00000000E+00
  0.00000000E+00  0.00000000E+00  0.00000000E+00
  0.00000000E+00  0.00000000E+00  0.00000000E+00
  0.00000000E+00  0.00000000E+00  0.00000000E+00
  0.00000000E+00  0.00000000E+00  0.00000000E+00
  0.00000000E+00  0.00000000E+00  0.00000000E+00
  0.00000000E+00  0.00000000E+00  0.00000000E+00
  0.00000000E+00  0.00000000E+00  0.00000000E+00
  0.00000000E+00  0.00000000E+00  0.00000000E+00
  0.00000000E+00  0.00000000E+00  0.00000000E+00
  0.00000000E+00  0.00000000E+00  0.00000000E+00
  0.00000000E+00  0.00000000E+00  0.00000000E+00
  0.00000000E+00  0.00000000E+00  0.00000000E+00
  0.00000000E+00  0.00000000E+00  0.00000000E+00
  0.00000000E+00  0.00000000E+00  0.00000000E+00
  0.00000000E+00  0.00000000E+00  0.00000000E+00
  0.00000000E+00  0.00000000E+00  0.00000000E+00
  0.00000000E+00  0.00000000E+00  0.00000000E+00
  0.00000000E+00  0.00000000E+00  0.00000000E+00
  0.00000000E+00  0.00000000E+00  0.00000000E+00
  0.00000000E+00  0.00000000E+00  0.00000000E+00
  0.00000000E+00  0.00000000E+00  0.00000000E+00
  0.00000000E+00  0.00000000E+00  0.00000000E+00
  0.00000000E+00  0.00000000E+00  0.00000000E+00
  0.00000000E+00  0.00000000E+00  0.00000000E+00
  0.00000000E+00  0.00000000E+00  0.00000000E+00
  0.00000000E+00  0.00000000E+00  0.00000000E+00
  0.00000000E+00  0.00000000E+00  0.00000000E+00
  0.00000000E+00  0.00000000E+00  0.00000000E+00
  0.00000000E+00  0.00000000E+00  0.00000000E+00
  0.00000000E+00  0.00000000E+00  0.00000000E+00
  0.00000000E+00  0.00000000E+00  0.00000000E+00
  0.00000000E+00  0.00000000E+00  0.00000000E+00
  0.00000000E+00  0.00000000E+00  0.00000000E+00
  0.00000000E+00  0.00000000E+00  0.00000000E+00
  0.00000000E+00  0.00000000E+00  0.00000000E+00
  0.00000000E+00  0.00000000E+00  0.00000000E+00
  0.00000000E+00  0.00000000E+00  0.00000000E+00
  0.00000000E+00  0.00000000E+00  0.00000000E+00
  0.00000000E+00  0.00000000E+00  0.00000000E+00
  0.00000000E+00  0.00000000E+00  0.00000000E+00
  0.00000000E+00  0.00000000E+00  0.00000000E+00
  0.00000000E+00  0.00000000E+00  0.00000000E+00
  0.00000000E+00  0.00000000E+00  0.00000000E+00
  0.00000000E+00  0.00000000E+00  0.00000000E+00
  0.00000000E+00  0.00000000E+00  0.00000000E+00
  0.00000000E+00  0.00000000E+00  0.00000000E+00
  0.00000000E+00  0.00000000E+00  0.00000000E+00
  0.00000000E+00  0.00000000E+00  0.00000000E+00
  0.00000000E+00  0.00000000E+00  0.00000000E+00
  0.00000000E+00  0.00000000E+00  0.00000000E+00
  0.00000000E+00  0.00000000E+00  0.00000000E+00
  0.00000000E+00  0.00000000E+00  0.00000000E+00
  0.00000000E+00  0.00000000E+00  0.00000000E+00
  0.00000000E+00  0.00000000E+00  0.00000000E+00
  0.00000000E+00  0.00000000E+00  0.00000000E+00
  0.00000000E+00  0.00000000E+00  0.00000000E+00
  0.00000000E+00  0.00000000E+00  0.00000000E+00
  0.00000000E+00  0.00000000E+00  0.00000000E+00
  0.00000000E+00  0.00000000E+00  0.00000000E+00
  0.00000000E+00  0.00000000E+00  0.00000000E+00
  0.00000000E+00  0.00000000E+00  0.00000000E+00
  0.00000000E+00  0.00000000E+00  0.00000000E+00
  0.00000000E+00  0.00000000E+00  0.00000000E+00
  0.00000000E+00  0.00000000E+00  0.00000000E+00
  0.00000000E+00  0.00000000E+00  0.00000000E+00
  0.00000000E+00  0.00000000E+00  0.00000000E+00
  0.00000000E+00  0.00000000E+00  0.00000000E+00
  0.00000000E+00  0.00000000E+00  0.00000000E+00
  0.00000000E+00  0.00000000E+00  0.00000000E+00
  0.00000000E+00  0.00000000E+00  0.00000000E+00
  0.00000000E+00  0.00000000E+00  0.00000000E+00
  0.00000000E+00  0.00000000E+00  0.00000000E+00
  0.00000000E+00  0.00000000E+00  0.00000000E+00
  0.00000000E+00  0.00000000E+00  0.00000000E+00
  0.00000000E+00  0.00000000E+00  0.00000000E+00
  0.00000000E+00  0.00000000E+00  0.00000000E+00
  0.00000000E+00  0.00000000E+00  0.00000000E+00
  0.00000000E+00  0.00000000E+00  0.00000000E+00
  0.00000000E+00  0.00000000E+00  0.00000000E+00
  0.00000000E+00  0.00000000E+00  0.00000000E+00
  0.00000000E+00  0.00000000E+00  0.00000000E+00
  0.00000000E+00  0.00000000E+00  0.00000000E+00
  0.00000000E+00  0.00000000E+00  0.00000000E+00
  0.00000000E+00  0.00000000E+00  0.00000000E+00
  0.00000000E+00  0.00000000E+00  0.00000000E+00
  0.00000000E+00  0.00000000E+00  0.00000000E+00
  0.00000000E+00  0.00000000E+00  0.00000000E+00
  0.00000000E+00  0.00000000E+00  0.00000000E+00
  0.00000000E+00  0.00000000E+00  0.00000000E+00
  0.00000000E+00  0.00000000E+00  0.00000000E+00
  0.00000000E+00  0.00000000E+00  0.00000000E+00