C4H52O154Si65W1
1.0
     23.4112946       0.0000000       0.0000000
      0.0000000      18.1212370       0.0000000
      0.0000000       0.0000000      26.8833665
  C     H     O     Si    W   
  4     52   154    65    1   
Direct
      0.5523193       0.4657633       0.7249855
      0.5204199       0.5161656       0.7600208
      0.5668821       0.3921833       0.7413271
      0.5394955       0.5989392       0.7685595
      0.7609164       0.1031508       0.6512130
      0.9264277       0.2786690       0.3563349
      0.7933397       0.2072789       0.3734565
      0.9745391       0.9436086       0.3253028
      0.6257327       0.9634728       0.3752312
      0.8205384       0.9950067       0.3689926
      0.7499931       0.1411788       0.4580382
      0.9154306       0.2494609       0.5091970
      0.5834929       0.3042635       0.3059272
      0.8914993       0.3348166       0.6160388
      0.5907298       0.3602507       0.6143907
      0.5930078       0.8694984       0.5781212
      0.0340333       0.3380031       0.6518333
      0.9352705       0.4195142       0.4541015
      0.7461384       0.5303120       0.4224882
      0.7983660       0.3817911       0.6347987
      0.5911020       0.5686828       0.3780347
      0.7184338       0.6459328       0.3834606
      0.8411529       0.5424266       0.4195962
      0.0047645       0.6037981       0.3577783
      0.8283587       0.7123567       0.4679423
      0.8765371       0.5988503       0.7216162
      0.5199903       0.9855648       0.4217031
      0.2230946       0.9801548       0.3932050
      0.2163737       0.2378515       0.3192303
      0.1575011       0.3298062       0.2789829
      0.3415469       0.1555857       0.3307728
      0.2227159       0.0457589       0.3227384
      0.5109486       0.8268083       0.5466955
      0.3746401       0.2411648       0.6478160
      0.2433262       0.0931369       0.5986153
      0.3153810       0.4871365       0.4424347
      0.4089562       0.4387349       0.4056906
      0.3984995       0.7931136       0.3887868
      0.2442024       0.6554301       0.2943269
      0.3117414       0.4184757       0.3692576
      0.4054743       0.5842797       0.3388199
      0.1393576       0.4879736       0.3519295
      0.5932693       0.6979871       0.3523980
      0.4690068       0.8614275       0.4438284
      0.1219467       0.3228283       0.6116672
      0.0719840       0.6658585       0.6454203
      0.2425487       0.3855300       0.6825185
      0.2471158       0.8155016       0.6696160
      0.5890718       0.4921910       0.7067167
      0.5009284       0.4912108       0.7920047
      0.6070373       0.3931615       0.7657495
      0.5322758       0.3691688       0.7635742
      0.5752604       0.3570706       0.7094860
      0.5687598       0.6041046       0.7995087
      0.5618956       0.6207139       0.7361638
      0.5030101       0.6362668       0.7761235
      0.3689417       0.6483551       0.4390000
      0.3468156       0.5040339       0.4203881
      0.8607123       0.5660257       0.6967416
      0.3487100       0.9599559       0.5305699
      0.0334450       0.9325592       0.5285374
      0.6363555       0.0788685       0.4893767
      0.0686461       0.0522654       0.3951107
      0.4518995       0.1295623       0.4205973
      0.8058841       0.2136502       0.4831666
      0.9731170       0.1815480       0.5987834
      0.2747653       0.2991729       0.4485122
      0.5563542       0.7750913       0.4417510
      0.3911596       0.9747456       0.6196165
      0.1775172       0.3499684       0.4052731
      0.8664103       0.6839906       0.6373028
      0.8656960       0.9671769       0.4670385
      0.3010471       0.7609368       0.4579253
      0.4216109       0.2612522       0.3795963
      0.8112708       0.4653132       0.5202013
      0.9834817       0.0727584       0.5212460
      0.5096007       0.4631332       0.6295736
      0.0345364       0.9199478       0.4294053
      0.9630365       0.3031953       0.3512576
      0.0696267       0.3361058       0.3763718
      0.2082957       0.7286443       0.3953601
      0.0389013       0.4191019       0.4991088
      0.2397078       0.2859591       0.5878340
      0.3968348       0.1961764       0.6451695
      0.4546277       0.5645063       0.5794956
      0.9096865       0.7491394       0.5574721
      0.8691273       0.1080433       0.4422783
      0.5725768       0.6673319       0.3761317
      0.1424266       0.1591255       0.3759722
      0.3512014       0.7650827       0.6066751
      0.9109960       0.8450476       0.4831796
      0.0613380       0.5368717       0.4422535
      0.7083390       0.5551666       0.4199577
      0.0754873       0.8168068       0.4829942
      0.7004648       0.8275557       0.4326353
      0.7300628       0.0489405       0.5430217
      0.9189429       0.3019911       0.6320625
      0.7347811       0.8527004       0.6128686
      0.6251220       0.5273940       0.4863787
      0.5565733       0.6297030       0.4672494
      0.4251885       0.2487143       0.5559733
      0.9782901       0.7282436       0.4767956
      0.6539992       0.5934892       0.6333154
      0.3966108       0.7472600       0.5150569
      0.6026901       0.5176655       0.3856710
      0.7200594       0.6301443       0.5569531
      0.1468053       0.3640221       0.6198670
      0.0666367       0.5486036       0.5419788
      0.8188448       0.8845990       0.5366236
      0.8282155       0.3553851       0.4519033
      0.5273571       0.2986842       0.5325913
      0.7369729       0.4983932       0.5956645
      0.5574339       0.1724311       0.3949085
      0.8059641       0.2564126       0.3832929
      0.2374462       0.9532508       0.5079196
      0.6922702       0.7749842       0.5419140
      0.9238297       0.9497704       0.5529836
      0.5257372       0.3177811       0.3985559
      0.4673580       0.9931580       0.5461924
      0.8375443       0.0948185       0.5397401
      0.5379033       0.1164175       0.4862371
      0.3501934       0.1866087       0.4396364
      0.0117603       0.9624139       0.3352438
      0.4506694       0.5948377       0.6730424
      0.6549652       0.9253975       0.3792283
      0.0762933       0.6860263       0.4358810
      0.4530026       0.4056425       0.5524462
      0.7192194       0.7004209       0.3795830
      0.4527121       0.7068704       0.5983460
      0.7525511       0.7093246       0.4762955
      0.7784799       0.1208748       0.6208315
      0.9932746       0.3080135       0.4484030
      0.5357091       0.5080237       0.5333023
      0.8167776       0.4990617       0.4234422
      0.2356362       0.1452061       0.6053663
      0.2035333       0.8307013       0.4705336
      0.2400120       0.5589034       0.5229060
      0.0612856       0.6255474       0.6236745
      0.0460741       0.6023467       0.3541786
      0.8005837       0.9785699       0.6057442
      0.5379909       0.0276975       0.4045028
      0.6064336       0.3125721       0.6050745
      0.8615461       0.0040808       0.3692063
      0.0949113       0.1490228       0.4670823
      0.1714051       0.2041183       0.5309262
      0.6409887       0.7044387       0.4548156
      0.4367878       0.4097685       0.3864133
      0.5737485       0.0596770       0.5714635
      0.1514377       0.5934080       0.3889584
      0.2677398       0.6023375       0.3923063
      0.4402585       0.3221982       0.4703244
      0.2380097       0.1585111       0.4299012
      0.0727546       0.1501857       0.5625437
      0.8450483       0.5438505       0.5999433
      0.6211794       0.2799399       0.4109055
      0.6026670       0.8915267       0.4672235
      0.0313854       0.1952898       0.3889919
      0.6077988       0.1957617       0.5471482
      0.1327997       0.9383546       0.4794871
      0.0802523       0.2803970       0.5115896
      0.3720479       0.1065665       0.5685350
      0.0666942       0.6970279       0.5357060
      0.6664884       0.4153849       0.4300116
      0.7992288       0.7294668       0.5641008
      0.7038386       0.9572084       0.4701846
      0.5983656       0.6352976       0.5529412
      0.7228403       0.2936847       0.4516681
      0.9775469       0.3141745       0.5472305
      0.1585621       0.6302199       0.5706856
      0.6333338       0.3267831       0.5078007
      0.8202268       0.3960352       0.6056828
      0.9585782       0.0272430       0.4169530
      0.2819934       0.1950618       0.5186418
      0.2492575       0.4430329       0.4610557
      0.2734429       0.8506786       0.5691353
      0.2036681       0.6855732       0.4868887
      0.1471235       0.4760699       0.4925449
      0.2245021       0.4227914       0.5568068
      0.9114170       0.4527446       0.4737188
      0.8697882       0.7045601       0.4641535
      0.7381202       0.0928346       0.4452296
      0.2221834       0.9297812       0.4079468
      0.2520673       0.4022272       0.6493032
      0.6298583       0.8819493       0.5938694
      0.4102233       0.7890624       0.4234374
      0.9177714       0.1960383       0.5082451
      0.1325471       0.4435361       0.3322727
      0.1551477       0.3035233       0.3105604
      0.3730051       0.1309070       0.3479534
      0.0345799       0.2918905       0.6334416
      0.5726893       0.2568682       0.3200997
      0.2462082       0.7705654       0.6500466
      0.2073743       0.6484050       0.3103691
      0.2753744       0.3921913       0.3673758
      0.3653508       0.5975866       0.3422208
      0.2263809       0.0561808       0.3581189
      0.2412033       0.1960782       0.3293430
      0.5012729       0.8923016       0.4548417
      0.5499417       0.8278645       0.5343637
      0.5446573       0.6447808       0.6344204
      0.4779649       0.1239499       0.5967266
      0.2627483       0.6949948       0.5684099
      0.4417243       0.8493213       0.5807304
      0.7654623       0.6165829       0.6493939
      0.8446165       0.8315835       0.6229732
      0.6396469       0.7388417       0.6218960
      0.0081495       0.0334412       0.6029965
      0.2838614       0.0034876       0.5933310
      0.5026472       0.9729963       0.6284173
      0.4273001       0.4267705       0.7117689
      0.0832253       0.6064203       0.4064131
      0.4093942       0.7670482       0.5740246
      0.8417638       0.4414531       0.4678390
      0.0170895       0.9904820       0.3936114
      0.0147002       0.2841903       0.3910814
      0.0092251       0.1150508       0.5724963
      0.6092631       0.6570549       0.6110692
      0.2139947       0.4760140       0.5097306
      0.9150621       0.7555609       0.4962545
      0.5205785       0.1104556       0.4259866
      0.4180170       0.1711308       0.5895607
      0.0834525       0.1391721       0.4069809
      0.7018979       0.0448463       0.4873230
      0.6650594       0.8980375       0.4374764
      0.6500987       0.5040271       0.4301509
      0.1984606       0.9124822       0.4639907
      0.2143781       0.3665878       0.6035570
      0.6733437       0.8126925       0.5950415
      0.2169048       0.6418925       0.5385804
      0.3687891       0.7351277       0.4592093
      0.7972292       0.8883236       0.5956025
      0.8797811       0.9122655       0.5119907
      0.5768069       0.5749709       0.5122088
      0.5898676       0.1156679       0.5251608
      0.8581223       0.1521132       0.4951759
      0.8354338       0.6034980       0.6458946
      0.1337385       0.3603189       0.3568723
      0.7906553       0.2799392       0.4418727
      0.3991761       0.1774948       0.3960032
      0.8558883       0.7499879       0.5965010
      0.2830636       0.9355229       0.5496609
      0.0230747       0.3304475       0.5022455
      0.5745594       0.6954901       0.4355644
      0.2302410       0.7526005       0.4519695
      0.5936865       0.2841103       0.5482052
      0.9751896       0.2723093       0.6026355
      0.8889064       0.0254090       0.4242002
      0.1046859       0.1954629       0.5177468
      0.0481457       0.7330371       0.4826302
      0.2319110       0.2058247       0.5610363
      0.5614078       0.2577853       0.3812261
      0.4762660       0.6286647       0.6203058
      0.2820338       0.7708224       0.5977372
      0.2085008       0.6433998       0.3717945
      0.7403137       0.7101145       0.5358723
      0.9865409       0.9906141       0.5503647
      0.7031046       0.7368182       0.4342604
      0.7878111       0.0593592       0.5767744
      0.4563139       0.3284516       0.4092879
      0.4487269       0.9380225       0.5941014
      0.5079569       0.0428089       0.5863094
      0.2442472       0.3704063       0.4209471
      0.6585253       0.3300021       0.4503479
      0.4602258       0.3190650       0.5289854
      0.3372994       0.5899425       0.3990830
      0.8034674       0.4760353       0.5798846
      0.0692098       0.8988592       0.4805055
      0.2119076       0.1444543       0.3735966
      0.0782329       0.4939850       0.4946876
      0.5575702       0.8523401       0.4747303
      0.7183801       0.5840157       0.6095675
      0.2866421       0.2101017       0.4591108
      0.0883770       0.6256389       0.5676301
      0.3528376       0.0210693       0.5781926
      0.4863083       0.4817524       0.5727843
      0.4675503       0.4932979       0.6899662
