C2H48O154Si65W1
1.0
     23.4112946       0.0000000       0.0000000
      0.0000000      18.1212370       0.0000000
      0.0000000       0.0000000      26.8833665
  C     H     O     Si    W   
  2     48   154    65    1   
Direct
      0.5671415       0.5006926       0.7225160
      0.5986678       0.4579462       0.7619189
      0.7607763       0.1035950       0.6510595
      0.9264277       0.2786690       0.3563349
      0.7933397       0.2072789       0.3734565
      0.9745391       0.9436086       0.3253028
      0.6257327       0.9634728       0.3752312
      0.8205384       0.9950067       0.3689926
      0.7499931       0.1411788       0.4580382
      0.9154903       0.2494690       0.5089665
      0.5834929       0.3042635       0.3059272
      0.8914619       0.3347538       0.6158288
      0.5874017       0.3591173       0.6149924
      0.5933441       0.8708966       0.5780342
      0.0336051       0.3376069       0.6523653
      0.9352705       0.4195142       0.4541015
      0.7461384       0.5303120       0.4224882
      0.7981637       0.3824779       0.6349576
      0.5911020       0.5686828       0.3780347
      0.7184338       0.6459328       0.3834606
      0.8411529       0.5424266       0.4195962
      0.0047645       0.6037981       0.3577783
      0.8283587       0.7123567       0.4679423
      0.8764935       0.5987075       0.7216063
      0.5199903       0.9855648       0.4217031
      0.2230946       0.9801548       0.3932050
      0.2163737       0.2378515       0.3192303
      0.1575011       0.3298062       0.2789829
      0.3415469       0.1555857       0.3307728
      0.2227159       0.0457589       0.3227384
      0.5110455       0.8263848       0.5467232
      0.3773675       0.2419078       0.6475330
      0.2436036       0.0936934       0.5988573
      0.3153810       0.4871365       0.4424347
      0.4089562       0.4387349       0.4056906
      0.3984995       0.7931136       0.3887868
      0.2442024       0.6554301       0.2943269
      0.3117414       0.4184757       0.3692576
      0.4054743       0.5842797       0.3388199
      0.1393576       0.4879736       0.3519295
      0.5932693       0.6979871       0.3523980
      0.4690068       0.8614275       0.4438284
      0.1217372       0.3245447       0.6119153
      0.0716801       0.6657958       0.6454198
      0.2417937       0.3863995       0.6825180
      0.2457636       0.8154744       0.6696930
      0.6084986       0.4925923       0.7945706
      0.5916502       0.5462655       0.7051052
      0.5742433       0.4095558       0.7742743
      0.6400087       0.4387805       0.7467916
      0.3689417       0.6483551       0.4390000
      0.3468156       0.5040339       0.4203881
      0.8607527       0.5659946       0.6966314
      0.3483438       0.9587245       0.5305843
      0.0334441       0.9325562       0.5285309
      0.6363555       0.0788685       0.4893767
      0.0686461       0.0522654       0.3951107
      0.4518995       0.1295623       0.4205973
      0.8058841       0.2136502       0.4831666
      0.9731224       0.1815425       0.5987707
      0.2747653       0.2991729       0.4485122
      0.5563542       0.7750913       0.4417510
      0.3913512       0.9729063       0.6195745
      0.1775172       0.3499684       0.4052731
      0.8665077       0.6841551       0.6373306
      0.8656960       0.9671769       0.4670385
      0.3010471       0.7609368       0.4579253
      0.4216109       0.2612522       0.3795963
      0.8112525       0.4652748       0.5201491
      0.9835979       0.0727776       0.5212448
      0.5168834       0.4561796       0.6250635
      0.0345364       0.9199478       0.4294053
      0.9630365       0.3031953       0.3512576
      0.0696267       0.3361058       0.3763718
      0.2082957       0.7286443       0.3953601
      0.0389013       0.4191019       0.4991088
      0.2391697       0.2864424       0.5875100
      0.3975226       0.1953371       0.6447669
      0.4554043       0.5609848       0.5833956
      0.9097881       0.7491844       0.5575129
      0.8691273       0.1080433       0.4422783
      0.5725768       0.6673319       0.3761317
      0.1424266       0.1591255       0.3759722
      0.3502138       0.7661020       0.6066791
      0.9109960       0.8450476       0.4831796
      0.0613380       0.5368717       0.4422535
      0.7083390       0.5551666       0.4199577
      0.0754873       0.8168068       0.4829942
      0.7004648       0.8275557       0.4326353
      0.7302111       0.0490236       0.5429672
      0.9189446       0.3021395       0.6319597
      0.7350697       0.8531882       0.6129339
      0.6251220       0.5273940       0.4863787
      0.5565733       0.6297030       0.4672494
      0.4250999       0.2471668       0.5552842
      0.9782901       0.7282436       0.4767956
      0.6543088       0.5943833       0.6334492
      0.3971554       0.7464223       0.5154023
      0.6026901       0.5176655       0.3856710
      0.7195087       0.6314656       0.5570074
      0.1468181       0.3657075       0.6197627
      0.0661618       0.5484993       0.5419633
      0.8188949       0.8847132       0.5366656
      0.8282155       0.3553851       0.4519033
      0.5272984       0.2985499       0.5326117
      0.7368741       0.4993244       0.5952612
      0.5574339       0.1724311       0.3949085
      0.8059641       0.2564126       0.3832929
      0.2374462       0.9532508       0.5079196
      0.6929272       0.7765782       0.5413387
      0.9238895       0.9497973       0.5529392
      0.5257372       0.3177811       0.3985559
      0.4680122       0.9900771       0.5462368
      0.8377881       0.0948210       0.5398227
      0.5379033       0.1164175       0.4862371
      0.3501934       0.1866087       0.4396364
      0.0117603       0.9624139       0.3352438
      0.4593347       0.5892597       0.6774635
      0.6549652       0.9253975       0.3792283
      0.0762933       0.6860263       0.4358810
      0.4517246       0.4044806       0.5522331
      0.7192194       0.7004209       0.3795830
      0.4496939       0.7029965       0.6012387
      0.7525511       0.7093246       0.4762955
      0.7785436       0.1211483       0.6207288
      0.9932746       0.3080135       0.4484030
      0.5321942       0.5081044       0.5294211
      0.8167776       0.4990617       0.4234422
      0.2356637       0.1457013       0.6054941
      0.2035333       0.8307013       0.4705336
      0.2400286       0.5590356       0.5228041
      0.0610769       0.6254069       0.6236943
      0.0460741       0.6023467       0.3541786
      0.8007963       0.9788210       0.6058674
      0.5379909       0.0276975       0.4045028
      0.6062934       0.3137075       0.6049097
      0.8615461       0.0040808       0.3692063
      0.0949113       0.1490228       0.4670823
      0.1714933       0.2038646       0.5306222
      0.6409887       0.7044387       0.4548156
      0.4367878       0.4097685       0.3864133
      0.5737266       0.0586699       0.5710395
      0.1514377       0.5934080       0.3889584
      0.2677398       0.6023375       0.3923063
      0.4402585       0.3221982       0.4703244
      0.2380097       0.1585111       0.4299012
      0.0727798       0.1503216       0.5625975
      0.8450192       0.5441688       0.5997145
      0.6211794       0.2799399       0.4109055
      0.6026670       0.8915267       0.4672235
      0.0313854       0.1952898       0.3889919
      0.6076384       0.1955794       0.5474020
      0.1327997       0.9383546       0.4794871
      0.0802653       0.2803936       0.5115889
      0.3722195       0.1050573       0.5684565
      0.0666893       0.6969855       0.5357140
      0.6664884       0.4153849       0.4300116
      0.7993979       0.7296494       0.5641311
      0.7038386       0.9572084       0.4701846
      0.5973220       0.6326379       0.5533774
      0.7228403       0.2936847       0.4516681
      0.9775618       0.3141639       0.5472055
      0.1583044       0.6297759       0.5706594
      0.6333338       0.3267831       0.5078007
      0.8196185       0.3962871       0.6055082
      0.9585782       0.0272430       0.4169530
      0.2820295       0.1951313       0.5186571
      0.2492575       0.4430329       0.4610557
      0.2718739       0.8503429       0.5691800
      0.2036681       0.6855732       0.4868887
      0.1471235       0.4760699       0.4925449
      0.2250734       0.4233067       0.5568097
      0.9114170       0.4527446       0.4737188
      0.8697882       0.7045601       0.4641535
      0.7381202       0.0928346       0.4452296
      0.2221834       0.9297812       0.4079468
      0.2522685       0.4022704       0.6493304
      0.6304622       0.8834063       0.5933685
      0.4102233       0.7890624       0.4234374
      0.9177714       0.1960383       0.5082451
      0.1325471       0.4435361       0.3322727
      0.1551477       0.3035233       0.3105604
      0.3730051       0.1309070       0.3479534
      0.0346075       0.2919495       0.6334374
      0.5726893       0.2568682       0.3200997
      0.2451822       0.7703884       0.6502346
      0.2073743       0.6484050       0.3103691
      0.2753744       0.3921913       0.3673758
      0.3653508       0.5975866       0.3422208
      0.2263809       0.0561808       0.3581189
      0.2412033       0.1960782       0.3293430
      0.5012729       0.8923016       0.4548417
      0.5500289       0.8278199       0.5343589
      0.5454392       0.6470427       0.6347129
      0.4779851       0.1220300       0.5962755
      0.2623165       0.6947462       0.5685693
      0.4427400       0.8467481       0.5818657
      0.7656344       0.6168188       0.6494053
      0.8448108       0.8317745       0.6230198
      0.6401209       0.7396397       0.6206258
      0.0081610       0.0334585       0.6029956
      0.2840298       0.0028548       0.5935730
      0.5029092       0.9720034       0.6286667
      0.4585437       0.4285450       0.7255654
      0.0832253       0.6064203       0.4064131
      0.4090909       0.7651145       0.5749329
      0.8417638       0.4414531       0.4678390
      0.0170895       0.9904820       0.3936114
      0.0147002       0.2841903       0.3910814
      0.0092934       0.1150577       0.5725203
      0.6096854       0.6576750       0.6106644
      0.2140371       0.4761455       0.5096675
      0.9150621       0.7555609       0.4962545
      0.5205785       0.1104556       0.4259866
      0.4183006       0.1697640       0.5891635
      0.0834525       0.1391721       0.4069809
      0.7018979       0.0448463       0.4873230
      0.6650594       0.8980375       0.4374764
      0.6500987       0.5040271       0.4301509
      0.1984606       0.9124822       0.4639907
      0.2144240       0.3672376       0.6034952
      0.6736947       0.8138641       0.5944817
      0.2166462       0.6417564       0.5385730
      0.3687891       0.7351277       0.4592093
      0.7975031       0.8886395       0.5956736
      0.8798451       0.9123146       0.5119636
      0.5759529       0.5740901       0.5115980
      0.5898368       0.1156006       0.5252472
      0.8581223       0.1521132       0.4951759
      0.8355227       0.6036225       0.6458316
      0.1337385       0.3603189       0.3568723
      0.7906553       0.2799392       0.4418727
      0.3991761       0.1774948       0.3960032
      0.8560206       0.7501453       0.5965534
      0.2826147       0.9350396       0.5498708
      0.0230747       0.3304475       0.5022455
      0.5745594       0.6954901       0.4355644
      0.2302410       0.7526005       0.4519695
      0.5936817       0.2842465       0.5483430
      0.9751990       0.2722934       0.6026144
      0.8889064       0.0254090       0.4242002
      0.1047345       0.1954672       0.5177246
      0.0481457       0.7330371       0.4826302
      0.2318714       0.2060693       0.5609654
      0.5614078       0.2577853       0.3812261
      0.4772002       0.6266949       0.6231717
      0.2810590       0.7708170       0.5979333
      0.2085008       0.6433998       0.3717945
      0.7404407       0.7110050       0.5358012
      0.9865908       0.9906554       0.5503670
      0.7031046       0.7368182       0.4342604
      0.7879358       0.0595206       0.5767765
      0.4563139       0.3284516       0.4092879
      0.4491623       0.9359335       0.5946076
      0.5081436       0.0409818       0.5860388
      0.2442472       0.3704063       0.4209471
      0.6585253       0.3300021       0.4503479
      0.4600220       0.3180254       0.5288598
      0.3372994       0.5899425       0.3990830
      0.8032998       0.4764276       0.5797024
      0.0692098       0.8988592       0.4805055
      0.2119076       0.1444543       0.3735966
      0.0782329       0.4939850       0.4946876
      0.5575702       0.8523401       0.4747303
      0.7185163       0.5847846       0.6094548
      0.2866421       0.2101017       0.4591108
      0.0880864       0.6254346       0.5676353
      0.3530719       0.0195949       0.5782640
      0.4868429       0.4794799       0.5715097
      0.4947081       0.4933113       0.6909416
