C  H  O  Si W                           
   1.0000000000000000     
    23.4112945954000011    0.0000000000000000    0.0000000000000000
     0.0000000000000000   18.1212369513999967    0.0000000000000000
     0.0000000000000000    0.0000000000000000   26.8833665072999999
   C    H    O    Si   W 
     4    52   154    65     1
Selective dynamics
Direct
  0.5611076674387050  0.4599775964620179  0.7223772459978406   T   T   T
  0.5087138520514003  0.5617019295430907  0.8097662352151644   T   T   T
  0.5795806450822241  0.3937739477849576  0.7523956009721076   T   T   T
  0.5184350991700981  0.6269336594430257  0.7878513672891714   T   T   T
  0.7611014594037968  0.1034244433378646  0.6511748032843272   T   T   T
  0.9264276758775409  0.2786689628389283  0.3563349293400009   F   F   F
  0.7933396966928186  0.2072788972396751  0.3734565163880745   F   F   F
  0.9745391127316694  0.9436086005532900  0.3253027906056829   F   F   F
  0.6257326647787878  0.9634728499897562  0.3752311999972449   F   F   F
  0.8205383986272707  0.9950066635937915  0.3689926296547128   F   F   F
  0.7499930738495308  0.1411787558468731  0.4580381926778543   F   F   F
  0.9154995882945158  0.2494765679503601  0.5088504297950323   T   T   T
  0.5834928632816769  0.3042635462298904  0.3059271726651787   F   F   F
  0.8913686018321059  0.3347777422305995  0.6157595051119031   T   T   T
  0.5850909913012927  0.3602798730777721  0.6136402199078219   T   T   T
  0.5934330359332733  0.8710074395156155  0.5781212719787945   T   T   T
  0.0340782409874691  0.3381139595056482  0.6517128316806620   T   T   T
  0.9352705076763712  0.4195142257503406  0.4541014552468710   F   F   F
  0.7461383787735159  0.5303119924306614  0.4224881911837883   F   F   F
  0.7977411492051729  0.3822853065566889  0.6346781090255433   T   T   T
  0.5911020174091490  0.5686828267211084  0.3780347436188976   F   F   F
  0.7184337867802384  0.6459327858135424  0.3834605945055571   F   F   F
  0.8411529142292764  0.5424265960688572  0.4195961671555111   F   F   F
  0.0047645486475076  0.6037981492295330  0.3577783004107076   F   F   F
  0.8283586993267491  0.7123566734117333  0.4679422553080954   F   F   F
  0.8780601045731444  0.5986508049855530  0.7208883987717982   T   T   T
  0.5199903139612303  0.9855647615614487  0.4217030704774842   F   F   F
  0.2230945721612159  0.9801548351936802  0.3932050219465495   F   F   F
  0.2163736907482345  0.2378514580028224  0.3192303272980936   F   F   F
  0.1575010503616241  0.3298062300070157  0.2789829167401123   F   F   F
  0.3415468765692253  0.1555857055490506  0.3307727584112428   F   F   F
  0.2227158616647102  0.0457589260230407  0.3227384335196248   F   F   F
  0.5118446391784914  0.8231612220094817  0.5467422189137849   T   T   T
  0.3833040359244251  0.2431569453840368  0.6474487847559445   T   T   T
  0.2444589061332394  0.0928129717728652  0.5984502983404880   T   T   T
  0.3153809713091036  0.4871364645735810  0.4424346656312608   F   F   F
  0.4089561837294582  0.4387348586869422  0.4056905975982730   F   F   F
  0.3984995032241372  0.7931136076499854  0.3887867966224334   F   F   F
  0.2442023571188656  0.6554300787776768  0.2943268807443218   F   F   F
  0.3117413815567005  0.4184757135367221  0.3692576443915385   F   F   F
  0.4054742948844066  0.5842796534641153  0.3388198885480591   F   F   F
  0.1393576205880507  0.4879736465794622  0.3519294596467617   F   F   F
  0.5932693451318087  0.6979871284243586  0.3523979868156601   F   F   F
  0.4690068301459220  0.8614274692379169  0.4438283837725479   F   F   F
  0.1218572244302152  0.3228872809340473  0.6115628990521387   T   T   T
  0.0731113299443606  0.6649060612767315  0.6457347893899907   T   T   T
  0.2429797037517645  0.3838637011799335  0.6824473148026087   T   T   T
  0.2442952945241927  0.8143920824433195  0.6689171549905666   T   T   T
  0.5936427141700236  0.5036073476947820  0.7172173306832192   T   T   T
  0.4654643194297847  0.5419907633531338  0.8174306277835015   T   T   T
  0.6026293836786891  0.4092998915554347  0.7866288642109467   T   T   T
  0.5429756893548188  0.3586273566818221  0.7621050098871720   T   T   T
  0.6092104478147959  0.3599750080789832  0.7297917406319456   T   T   T
  0.5436171483854721  0.5250789818713173  0.8205758590902548   T   T   T
  0.5617677149543354  0.6459663555700956  0.7797356760631544   T   T   T
  0.4835582927927007  0.6629179225677504  0.7760851917077574   T   T   T
  0.3689417337945073  0.6483550974205130  0.4390000177989322   F   F   F
  0.3468156499810249  0.5040338679473777  0.4203881275781143   F   F   F
  0.8607139876596079  0.5660279772926131  0.6966584498110606   T   T   T
  0.3491468385386938  0.9544394287784925  0.5311342060697726   T   T   T
  0.0334496994418885  0.9325798233372424  0.5285309760206687   T   T   T
  0.6363554822990451  0.0788685455599989  0.4893766723794641   F   F   F
  0.0686461464807948  0.0522654214745515  0.3951107345583225   F   F   F
  0.4518995424319527  0.1295623248292515  0.4205972814427668   F   F   F
  0.8058841492861291  0.2136501796918466  0.4831666074103040   F   F   F
  0.9731196265438982  0.1815789707563482  0.5987889394503227   T   T   T
  0.2747652928840907  0.2991728710101214  0.4485122250900346   F   F   F
  0.5563541661963498  0.7750912911781072  0.4417510122690658   F   F   F
  0.3929589565310678  0.9679546993904538  0.6199109882105418   T   T   T
  0.1775172398589788  0.3499684493290118  0.4052731245300478   F   F   F
  0.8667071778027733  0.6839493348384948  0.6372082218113633   T   T   T
  0.8656960102276017  0.9671769320775354  0.4670384592975196   F   F   F
  0.3010471365896024  0.7609368348742791  0.4579252567998537   F   F   F
  0.4216109456219570  0.2612522170148708  0.3795963030273342   F   F   F
  0.8110779035671598  0.4653798639755280  0.5200679776284645   T   T   T
  0.9835260386588729  0.0727822949397918  0.5212400052992407   T   T   T
  0.5203185419306990  0.4532183912473116  0.6209552067347914   T   T   T
  0.0345364061182565  0.9199477616519545  0.4294052572495062   F   F   F
  0.9630365419446250  0.3031953079439518  0.3512576249606170   F   F   F
  0.0696266904488567  0.3361057655302346  0.3763717815531962   F   F   F
  0.2082956575310035  0.7286442941956537  0.3953601014000157   F   F   F
  0.0389012629134911  0.4191019155796809  0.4991087535393461   F   F   F
  0.2394837853588783  0.2855992795195235  0.5878800598412326   T   T   T
  0.3975613344354514  0.1931873911968651  0.6441193281829669   T   T   T
  0.4558318874963874  0.5580208139229157  0.5834441045382377   T   T   T
  0.9097887142069894  0.7492023003296424  0.5574772256800955   T   T   T
  0.8691272713299156  0.1080433423588048  0.4422783307318099   F   F   F
  0.5725767945756743  0.6673318528661909  0.3761317316733468   F   F   F
  0.1424265590957958  0.1591254988132746  0.3759722435750490   F   F   F
  0.3498874440556605  0.7660623011046326  0.6067667211873058   T   T   T
  0.9109960497951874  0.8450475714254182  0.4831796236075121   F   F   F
  0.0613380104910135  0.5368717058331640  0.4422534820284341   F   F   F
  0.7083390277084121  0.5551665518466606  0.4199576800001736   F   F   F
  0.0754872572765848  0.8168068048942771  0.4829941554854784   F   F   F
  0.7004647711973604  0.8275557150113073  0.4326352913293690   F   F   F
  0.7301819316453972  0.0490164352461377  0.5429956264575893   T   T   T
  0.9189491325177528  0.3022953114497895  0.6319387519883293   T   T   T
  0.7349676452616549  0.8528190693220097  0.6128388049129398   T   T   T
  0.6251219543867705  0.5273940020615839  0.4863787091564404   F   F   F
  0.5565732987385132  0.6297030403834256  0.4672494240254110   F   F   F
  0.4264069228951186  0.2432594241093540  0.5545597437225709   T   T   T
  0.9782900938336425  0.7282436336050182  0.4767956400891720   F   F   F
  0.6542574264423067  0.5941968070363259  0.6337101244911878   T   T   T
  0.3971890793832102  0.7447066442843422  0.5158055436542028   T   T   T
  0.6026900685395375  0.5176654517715136  0.3856709925442061   F   F   F
  0.7193075752752094  0.6314698083823060  0.5571516153406009   T   T   T
  0.1467651303768918  0.3639890083256745  0.6198894869204850   T   T   T
  0.0661989237648797  0.5485426733604299  0.5419239680844612   T   T   T
  0.8189023708298180  0.8846096219574804  0.5366597909006714   T   T   T
  0.8282155306614527  0.3553851427237973  0.4519033357708793   F   F   F
  0.5273042807335315  0.2981152711795616  0.5318067515749263   T   T   T
  0.7368095069516656  0.4993387101332729  0.5953229507117044   T   T   T
  0.5574339360995921  0.1724311051770471  0.3949085375269945   F   F   F
  0.8059640829904495  0.2564125704700402  0.3832928600033014   F   F   F
  0.2374462167629616  0.9532507504721153  0.5079195554207132   F   F   F
  0.6929402974994758  0.7765042810119098  0.5411522092483807   T   T   T
  0.9238495795724049  0.9497801772129222  0.5529756018863381   T   T   T
  0.5257372223541736  0.3177811195808147  0.3985559351687087   F   F   F
  0.4695389286783325  0.9860842226620079  0.5466615159259831   T   T   T
  0.8377240897758469  0.0947988747498911  0.5397826335478371   T   T   T
  0.5379032530424510  0.1164174893117362  0.4862370923690094   F   F   F
  0.3501934425152129  0.1866087324322407  0.4396363938456389   F   F   F
  0.0117603228167908  0.9624138998997935  0.3352437574830063   F   F   F
  0.4632892426780941  0.5806349903113386  0.6777958554153045   T   T   T
  0.6549652215522386  0.9253975043083074  0.3792282539811964   F   F   F
  0.0762933429470323  0.6860262574042792  0.4358810225764742   F   F   F
  0.4502079077196797  0.4021605933243677  0.5519542151060222   T   T   T
  0.7192194366265099  0.7004208513439565  0.3795829994963285   F   F   F
  0.4470519885444943  0.6981282660824917  0.6033533484977269   T   T   T
  0.7525510591055777  0.7093245754016806  0.4762954835743187   F   F   F
  0.7785693830397165  0.1211111150456432  0.6207181369861559   T   T   T
  0.9932746155468877  0.3080134734220721  0.4484029789284989   F   F   F
  0.5298497116702805  0.5066217419671304  0.5256416245580127   T   T   T
  0.8167775852155614  0.4990617344698620  0.4234422052650615   F   F   F
  0.2358693027275294  0.1445726998153631  0.6052540082163347   T   T   T
  0.2035333057163413  0.8307013160788728  0.4705336293601903   F   F   F
  0.2399833771139797  0.5584370204333950  0.5227519717064553   T   T   T
  0.0612545482201199  0.6254772213642426  0.6237029854788219   T   T   T
  0.0460740722049948  0.6023466921755443  0.3541786312221902   F   F   F
  0.8007085928195679  0.9786846440876715  0.6058210927295491   T   T   T
  0.5379909097114037  0.0276974917800175  0.4045027517534763   F   F   F
  0.6044079694279318  0.3144061951499140  0.6049256545736057   T   T   T
  0.8615461075340960  0.0040808494918636  0.3692063291070653   F   F   F
  0.0949113079819810  0.1490228354028815  0.4670823258906296   F   F   F
  0.1714839457149253  0.2039729550608342  0.5309016956103036   T   T   T
  0.6409886548841044  0.7044387202342079  0.4548155821771758   F   F   F
  0.4367877834064799  0.4097684809000555  0.3864132536704119   F   F   F
  0.5746317314587372  0.0574718237231338  0.5708781509274061   T   T   T
  0.1514377462021059  0.5934080234999826  0.3889583608347777   F   F   F
  0.2677397900769023  0.6023375314212132  0.3923062966030031   F   F   F
  0.4402584600309112  0.3221981823130449  0.4703244327181508   F   F   F
  0.2380096658898907  0.1585111293566044  0.4299011866524154   F   F   F
  0.0727562047788552  0.1502506416838756  0.5625586210344977   T   T   T
  0.8449748156834289  0.5441677301160226  0.5996331012229987   T   T   T
  0.6211794284267498  0.2799398765994923  0.4109054511829981   F   F   F
  0.6026669933739228  0.8915266658304475  0.4672234595428861   F   F   F
  0.0313853912181870  0.1952898291212790  0.3889918752683101   F   F   F
  0.6074632426123898  0.1954049106369524  0.5477714326674885   T   T   T
  0.1327997263300347  0.9383546445758171  0.4794870772378772   F   F   F
  0.0802584032849367  0.2803710037324549  0.5115893117383621   T   T   T
  0.3728880269889885  0.1007705059556159  0.5695270154476475   T   T   T
  0.0666299519293432  0.6970098130654137  0.5357179008607602   T   T   T
  0.6664883802866157  0.4153848775992941  0.4300115561107631   F   F   F
  0.7993675201191124  0.7294817708315477  0.5641687632725265   T   T   T
  0.7038385586134339  0.9572084333329656  0.4701845621740759   F   F   F
  0.5960532228484823  0.6297603441813919  0.5540293033306583   T   T   T
  0.7228402998664549  0.2936846541148483  0.4516681052539582   F   F   F
  0.9775437812477534  0.3142191935463501  0.5471985700595923   T   T   T
  0.1583218424978483  0.6297578281418623  0.5704528353187399   T   T   T
  0.6333338448107071  0.3267830793000925  0.5078007023299378   F   F   F
  0.8195536423719361  0.3963252766955776  0.6054716110807163   T   T   T
  0.9585781980894978  0.0272430444030434  0.4169530046787955   F   F   F
  0.2821550179682362  0.1949456819808901  0.5186604749347765   T   T   T
  0.2492575497532457  0.4430328891806070  0.4610556955705079   F   F   F
  0.2705776495222167  0.8479379878657198  0.5680225805858186   T   T   T
  0.2036681493187373  0.6855731694819696  0.4868887178860462   F   F   F
  0.1471234534495878  0.4760698767055516  0.4925449251270066   F   F   F
  0.2245106066446567  0.4225859805220225  0.5568715203787349   T   T   T
  0.9114169782859136  0.4527445982196738  0.4737188145108959   F   F   F
  0.8697881761182842  0.7045601105568409  0.4641535209108483   F   F   F
  0.7381202078118392  0.0928346185702935  0.4452296472671975   F   F   F
  0.2221834364607460  0.9297811898377830  0.4079468165165281   F   F   F
  0.2519752665246031  0.4018534569901675  0.6494348451480008   T   T   T
  0.6305184804170381  0.8832670130436142  0.5934538753778540   T   T   T
  0.4102232653459481  0.7890623920405417  0.4234373851432949   F   F   F
  0.9177713527308597  0.1960382937010650  0.5082451459005242   F   F   F
  0.1325470584190001  0.4435361138679994  0.3322726622007863   F   F   F
  0.1551476808853849  0.3035232552477680  0.3105604161752922   F   F   F
  0.3730051452693530  0.1309070432977180  0.3479534200993726   F   F   F
  0.0345660330922755  0.2919186854520461  0.6334243782702202   T   T   T
  0.5726892607782261  0.2568681914203168  0.3200996781806822   F   F   F
  0.2444751443272253  0.7690333275939594  0.6497564515493011   T   T   T
  0.2073742988973706  0.6484050497390186  0.3103690611938177   F   F   F
  0.2753744117793318  0.3921912990854679  0.3673758273212613   F   F   F
  0.3653508124869589  0.5975866322176486  0.3422207943191111   F   F   F
  0.2263808502218509  0.0561808240814585  0.3581188824802055   F   F   F
  0.2412033350308818  0.1960782276637332  0.3293429668079639   F   F   F
  0.5012729261715734  0.8923016219130631  0.4548416832162587   F   F   F
  0.5506793024912966  0.8274216235353578  0.5342760112415874   T   T   T
  0.5450583273198006  0.6479836866201296  0.6352398469853355   T   T   T
  0.4786624549555754  0.1187863543014771  0.5961589073913558   T   T   T
  0.2628828475681786  0.6928748793818968  0.5686568719663683   T   T   T
  0.4447257622913412  0.8424375453070994  0.5830656423107996   T   T   T
  0.7656421577837946  0.6167604696084297  0.6493994293417344   T   T   T
  0.8447563730595533  0.8316341241159648  0.6230337360524771   T   T   T
  0.6396594301097522  0.7390714366228295  0.6199936567783979   T   T   T
  0.0081452828474937  0.0334755247614282  0.6029806353508391   T   T   T
  0.2851371720502556  0.9993039434559634  0.5940798405002212   T   T   T
  0.5047759208446152  0.9691843475743198  0.6291016736370878   T   T   T
  0.4470393948168336  0.4109876097602907  0.7090956265572572   T   T   T
  0.0832252792583148  0.6064203007651798  0.4064130837160320   F   F   F
  0.4091612685593873  0.7619553552870642  0.5757333214857496   T   T   T
  0.8417638189676637  0.4414531151631493  0.4678389696388976   F   F   F
  0.0170894936830805  0.9904820388830231  0.3936113541928137   F   F   F
  0.0147002066459194  0.2841902736836772  0.3910814136036507   F   F   F
  0.0092368218496119  0.1150913555805104  0.5725023114996119   T   T   T
  0.6091448315013608  0.6568430637776288  0.6108621661574176   T   T   T
  0.2139652209025442  0.4756631706302272  0.5097499568423345   T   T   T
  0.9150621278077509  0.7555609373921541  0.4962545438487922   F   F   F
  0.5205785424995497  0.1104556260576075  0.4259865881079392   F   F   F
  0.4188947683844049  0.1663372937071799  0.5889979367654377   T   T   T
  0.0834525281692322  0.1391720770259113  0.4069808717903314   F   F   F
  0.7018979345349692  0.0448462544573900  0.4873230277072054   F   F   F
  0.6650593546526977  0.8980374634385981  0.4374764361266443   F   F   F
  0.6500987440092842  0.5040270570271090  0.4301508871204760   F   F   F
  0.1984606475676856  0.9124822313593555  0.4639906909803457   F   F   F
  0.2143541996388549  0.3663253944802705  0.6036002449677369   T   T   T
  0.6735513578299717  0.8134714711800655  0.5943288372614290   T   T   T
  0.2166964566634775  0.6411872192024077  0.5383861741037990   T   T   T
  0.3687891183983183  0.7351277332740764  0.4592092972079129   F   F   F
  0.7973967503478789  0.8884407250201676  0.5956502791312559   T   T   T
  0.8798138221743699  0.9122822317161763  0.5119875545965087   T   T   T
  0.5750100030475309  0.5729670544305208  0.5110501427244429   T   T   T
  0.5898105283123343  0.1153266831911495  0.5253123263171346   T   T   T
  0.8581223412116756  0.1521132323139867  0.4951759473310489   F   F   F
  0.8355686805222717  0.6035650931028371  0.6457679991687755   T   T   T
  0.1337385207956885  0.3603189035945249  0.3568722791356791   F   F   F
  0.7906552883383853  0.2799392456050427  0.4418726542293072   F   F   F
  0.3991760968159852  0.1774948439022879  0.3960031981861079   F   F   F
  0.8560340140342220  0.7500622407623609  0.5965266294991949   T   T   T
  0.2826808980918187  0.9327346479186218  0.5495750212521813   T   T   T
  0.0230747323006639  0.3304475145523895  0.5022455100715746   F   F   F
  0.5745593848382811  0.6954900809313358  0.4355643604055430   F   F   F
  0.2302409542512009  0.7526004965268882  0.4519695445397645   F   F   F
  0.5934707566269282  0.2841103609204438  0.5482600995426594   T   T   T
  0.9751760536497542  0.2723796315124218  0.6025909320367902   T   T   T
  0.8889063590695159  0.0254089988525621  0.4242001869335610   F   F   F
  0.1047312814390011  0.1954542666952150  0.5177502468429651   T   T   T
  0.0481456608991806  0.7330370933910686  0.4826301941714348   F   F   F
  0.2320261690137357  0.2054781402873829  0.5610629680909511   T   T   T
  0.5614078070968063  0.2577852696884548  0.3812261074005363   F   F   F
  0.4776387044028638  0.6225610196159579  0.6242584102340984   T   T   T
  0.2807683509748031  0.7694405815293663  0.5976492937154063   T   T   T
  0.2085008253050660  0.6433998444573277  0.3717945352858223   F   F   F
  0.7404107822286718  0.7108558067249788  0.5357993687188269   T   T   T
  0.9865617282978221  0.9906393808103360  0.5503644136695272   T   T   T
  0.7031045578374417  0.7368181531158413  0.4342603982179796   F   F   F
  0.7879052572730316  0.0594137450821535  0.5767670903400912   T   T   T
  0.4563138980148480  0.3284515949804003  0.4092878915485585   F   F   F
  0.4511909887204624  0.9319351256099750  0.5951895269236473   T   T   T
  0.5093637572581713  0.0380297948263504  0.5861764135890795   T   T   T
  0.2442471516899545  0.3704063238346720  0.4209471039025985   F   F   F
  0.6585253437214931  0.3300021108019919  0.4503479098948588   F   F   F
  0.4597851583472163  0.3158294640115642  0.5286320346542794   T   T   T
  0.3372993678552234  0.5899425417192177  0.3990830096962270   F   F   F
  0.8031834819258279  0.4764718505828682  0.5796875672243544   T   T   T
  0.0692097893945274  0.8988591556575116  0.4805055068825652   F   F   F
  0.2119075788647606  0.1444543212654636  0.3735965933534686   F   F   F
  0.0782328566383796  0.4939849950151185  0.4946876202126234   F   F   F
  0.5575701889662170  0.8523400985831628  0.4747302534090920   F   F   F
  0.7183327074860557  0.5847625032447823  0.6095695477121481   T   T   T
  0.2866421242385897  0.2101017385025088  0.4591107728955208   F   F   F
  0.0881500268395499  0.6255008828633208  0.5675788913982771   T   T   T
  0.3542871521662221  0.0149582602426221  0.5790051613437868   T   T   T
  0.4866059408718684  0.4772247708492259  0.5691600956926095   T   T   T
  0.4918450912840484  0.4791674169307640  0.6874321231164728   T   T   T

  0.00000000E+00  0.00000000E+00  0.00000000E+00
  0.00000000E+00  0.00000000E+00  0.00000000E+00
  0.00000000E+00  0.00000000E+00  0.00000000E+00
  0.00000000E+00  0.00000000E+00  0.00000000E+00
  0.00000000E+00  0.00000000E+00  0.00000000E+00
  0.00000000E+00  0.00000000E+00  0.00000000E+00
  0.00000000E+00  0.00000000E+00  0.00000000E+00
  0.00000000E+00  0.00000000E+00  0.00000000E+00
  0.00000000E+00  0.00000000E+00  0.00000000E+00
  0.00000000E+00  0.00000000E+00  0.00000000E+00
  0.00000000E+00  0.00000000E+00  0.00000000E+00
  0.00000000E+00  0.00000000E+00  0.00000000E+00
  0.00000000E+00  0.00000000E+00  0.00000000E+00
  0.00000000E+00  0.00000000E+00  0.00000000E+00
  0.00000000E+00  0.00000000E+00  0.00000000E+00
  0.00000000E+00  0.00000000E+00  0.00000000E+00
  0.00000000E+00  0.00000000E+00  0.00000000E+00
  0.00000000E+00  0.00000000E+00  0.00000000E+00
  0.00000000E+00  0.00000000E+00  0.00000000E+00
  0.00000000E+00  0.00000000E+00  0.00000000E+00
  0.00000000E+00  0.00000000E+00  0.00000000E+00
  0.00000000E+00  0.00000000E+00  0.00000000E+00
  0.00000000E+00  0.00000000E+00  0.00000000E+00
  0.00000000E+00  0.00000000E+00  0.00000000E+00
  0.00000000E+00  0.00000000E+00  0.00000000E+00
  0.00000000E+00  0.00000000E+00  0.00000000E+00
  0.00000000E+00  0.00000000E+00  0.00000000E+00
  0.00000000E+00  0.00000000E+00  0.00000000E+00
  0.00000000E+00  0.00000000E+00  0.00000000E+00
  0.00000000E+00  0.00000000E+00  0.00000000E+00
  0.00000000E+00  0.00000000E+00  0.00000000E+00
  0.00000000E+00  0.00000000E+00  0.00000000E+00
  0.00000000E+00  0.00000000E+00  0.00000000E+00
  0.00000000E+00  0.00000000E+00  0.00000000E+00
  0.00000000E+00  0.00000000E+00  0.00000000E+00
  0.00000000E+00  0.00000000E+00  0.00000000E+00
  0.00000000E+00  0.00000000E+00  0.00000000E+00
  0.00000000E+00  0.00000000E+00  0.00000000E+00
  0.00000000E+00  0.00000000E+00  0.00000000E+00
  0.00000000E+00  0.00000000E+00  0.00000000E+00
  0.00000000E+00  0.00000000E+00  0.00000000E+00
  0.00000000E+00  0.00000000E+00  0.00000000E+00
  0.00000000E+00  0.00000000E+00  0.00000000E+00
  0.00000000E+00  0.00000000E+00  0.00000000E+00
  0.00000000E+00  0.00000000E+00  0.00000000E+00
  0.00000000E+00  0.00000000E+00  0.00000000E+00
  0.00000000E+00  0.00000000E+00  0.00000000E+00
  0.00000000E+00  0.00000000E+00  0.00000000E+00
  0.00000000E+00  0.00000000E+00  0.00000000E+00
  0.00000000E+00  0.00000000E+00  0.00000000E+00
  0.00000000E+00  0.00000000E+00  0.00000000E+00
  0.00000000E+00  0.00000000E+00  0.00000000E+00
  0.00000000E+00  0.00000000E+00  0.00000000E+00
  0.00000000E+00  0.00000000E+00  0.00000000E+00
  0.00000000E+00  0.00000000E+00  0.00000000E+00
  0.00000000E+00  0.00000000E+00  0.00000000E+00
  0.00000000E+00  0.00000000E+00  0.00000000E+00
  0.00000000E+00  0.00000000E+00  0.00000000E+00
  0.00000000E+00  0.00000000E+00  0.00000000E+00
  0.00000000E+00  0.00000000E+00  0.00000000E+00
  0.00000000E+00  0.00000000E+00  0.00000000E+00
  0.00000000E+00  0.00000000E+00  0.00000000E+00
  0.00000000E+00  0.00000000E+00  0.00000000E+00
  0.00000000E+00  0.00000000E+00  0.00000000E+00
  0.00000000E+00  0.00000000E+00  0.00000000E+00
  0.00000000E+00  0.00000000E+00  0.00000000E+00
  0.00000000E+00  0.00000000E+00  0.00000000E+00
  0.00000000E+00  0.00000000E+00  0.00000000E+00
  0.00000000E+00  0.00000000E+00  0.00000000E+00
  0.00000000E+00  0.00000000E+00  0.00000000E+00
  0.00000000E+00  0.00000000E+00  0.00000000E+00
  0.00000000E+00  0.00000000E+00  0.00000000E+00
  0.00000000E+00  0.00000000E+00  0.00000000E+00
  0.00000000E+00  0.00000000E+00  0.00000000E+00
  0.00000000E+00  0.00000000E+00  0.00000000E+00
  0.00000000E+00  0.00000000E+00  0.00000000E+00
  0.00000000E+00  0.00000000E+00  0.00000000E+00
  0.00000000E+00  0.00000000E+00  0.00000000E+00
  0.00000000E+00  0.00000000E+00  0.00000000E+00
  0.00000000E+00  0.00000000E+00  0.00000000E+00
  0.00000000E+00  0.00000000E+00  0.00000000E+00
  0.00000000E+00  0.00000000E+00  0.00000000E+00
  0.00000000E+00  0.00000000E+00  0.00000000E+00
  0.00000000E+00  0.00000000E+00  0.00000000E+00
  0.00000000E+00  0.00000000E+00  0.00000000E+00
  0.00000000E+00  0.00000000E+00  0.00000000E+00
  0.00000000E+00  0.00000000E+00  0.00000000E+00
  0.00000000E+00  0.00000000E+00  0.00000000E+00
  0.00000000E+00  0.00000000E+00  0.00000000E+00
  0.00000000E+00  0.00000000E+00  0.00000000E+00
  0.00000000E+00  0.00000000E+00  0.00000000E+00
  0.00000000E+00  0.00000000E+00  0.00000000E+00
  0.00000000E+00  0.00000000E+00  0.00000000E+00
  0.00000000E+00  0.00000000E+00  0.00000000E+00
  0.00000000E+00  0.00000000E+00  0.00000000E+00
  0.00000000E+00  0.00000000E+00  0.00000000E+00
  0.00000000E+00  0.00000000E+00  0.00000000E+00
  0.00000000E+00  0.00000000E+00  0.00000000E+00
  0.00000000E+00  0.00000000E+00  0.00000000E+00
  0.00000000E+00  0.00000000E+00  0.00000000E+00
  0.00000000E+00  0.00000000E+00  0.00000000E+00
  0.00000000E+00  0.00000000E+00  0.00000000E+00
  0.00000000E+00  0.00000000E+00  0.00000000E+00
  0.00000000E+00  0.00000000E+00  0.00000000E+00
  0.00000000E+00  0.00000000E+00  0.00000000E+00
  0.00000000E+00  0.00000000E+00  0.00000000E+00
  0.00000000E+00  0.00000000E+00  0.00000000E+00
  0.00000000E+00  0.00000000E+00  0.00000000E+00
  0.00000000E+00  0.00000000E+00  0.00000000E+00
  0.00000000E+00  0.00000000E+00  0.00000000E+00
  0.00000000E+00  0.00000000E+00  0.00000000E+00
  0.00000000E+00  0.00000000E+00  0.00000000E+00
  0.00000000E+00  0.00000000E+00  0.00000000E+00
  0.00000000E+00  0.00000000E+00  0.00000000E+00
  0.00000000E+00  0.00000000E+00  0.00000000E+00
  0.00000000E+00  0.00000000E+00  0.00000000E+00
  0.00000000E+00  0.00000000E+00  0.00000000E+00
  0.00000000E+00  0.00000000E+00  0.00000000E+00
  0.00000000E+00  0.00000000E+00  0.00000000E+00
  0.00000000E+00  0.00000000E+00  0.00000000E+00
  0.00000000E+00  0.00000000E+00  0.00000000E+00
  0.00000000E+00  0.00000000E+00  0.00000000E+00
  0.00000000E+00  0.00000000E+00  0.00000000E+00
  0.00000000E+00  0.00000000E+00  0.00000000E+00
  0.00000000E+00  0.00000000E+00  0.00000000E+00
  0.00000000E+00  0.00000000E+00  0.00000000E+00
  0.00000000E+00  0.00000000E+00  0.00000000E+00
  0.00000000E+00  0.00000000E+00  0.00000000E+00
  0.00000000E+00  0.00000000E+00  0.00000000E+00
  0.00000000E+00  0.00000000E+00  0.00000000E+00
  0.00000000E+00  0.00000000E+00  0.00000000E+00
  0.00000000E+00  0.00000000E+00  0.00000000E+00
  0.00000000E+00  0.00000000E+00  0.00000000E+00
  0.00000000E+00  0.00000000E+00  0.00000000E+00
  0.00000000E+00  0.00000000E+00  0.00000000E+00
  0.00000000E+00  0.00000000E+00  0.00000000E+00
  0.00000000E+00  0.00000000E+00  0.00000000E+00
  0.00000000E+00  0.00000000E+00  0.00000000E+00
  0.00000000E+00  0.00000000E+00  0.00000000E+00
  0.00000000E+00  0.00000000E+00  0.00000000E+00
  0.00000000E+00  0.00000000E+00  0.00000000E+00
  0.00000000E+00  0.00000000E+00  0.00000000E+00
  0.00000000E+00  0.00000000E+00  0.00000000E+00
  0.00000000E+00  0.00000000E+00  0.00000000E+00
  0.00000000E+00  0.00000000E+00  0.00000000E+00
  0.00000000E+00  0.00000000E+00  0.00000000E+00
  0.00000000E+00  0.00000000E+00  0.00000000E+00
  0.00000000E+00  0.00000000E+00  0.00000000E+00
  0.00000000E+00  0.00000000E+00  0.00000000E+00
  0.00000000E+00  0.00000000E+00  0.00000000E+00
  0.00000000E+00  0.00000000E+00  0.00000000E+00
  0.00000000E+00  0.00000000E+00  0.00000000E+00
  0.00000000E+00  0.00000000E+00  0.00000000E+00
  0.00000000E+00  0.00000000E+00  0.00000000E+00
  0.00000000E+00  0.00000000E+00  0.00000000E+00
  0.00000000E+00  0.00000000E+00  0.00000000E+00
  0.00000000E+00  0.00000000E+00  0.00000000E+00
  0.00000000E+00  0.00000000E+00  0.00000000E+00
  0.00000000E+00  0.00000000E+00  0.00000000E+00
  0.00000000E+00  0.00000000E+00  0.00000000E+00
  0.00000000E+00  0.00000000E+00  0.00000000E+00
  0.00000000E+00  0.00000000E+00  0.00000000E+00
  0.00000000E+00  0.00000000E+00  0.00000000E+00
  0.00000000E+00  0.00000000E+00  0.00000000E+00
  0.00000000E+00  0.00000000E+00  0.00000000E+00
  0.00000000E+00  0.00000000E+00  0.00000000E+00
  0.00000000E+00  0.00000000E+00  0.00000000E+00
  0.00000000E+00  0.00000000E+00  0.00000000E+00
  0.00000000E+00  0.00000000E+00  0.00000000E+00
  0.00000000E+00  0.00000000E+00  0.00000000E+00
  0.00000000E+00  0.00000000E+00  0.00000000E+00
  0.00000000E+00  0.00000000E+00  0.00000000E+00
  0.00000000E+00  0.00000000E+00  0.00000000E+00
  0.00000000E+00  0.00000000E+00  0.00000000E+00
  0.00000000E+00  0.00000000E+00  0.00000000E+00
  0.00000000E+00  0.00000000E+00  0.00000000E+00
  0.00000000E+00  0.00000000E+00  0.00000000E+00
  0.00000000E+00  0.00000000E+00  0.00000000E+00
  0.00000000E+00  0.00000000E+00  0.00000000E+00
  0.00000000E+00  0.00000000E+00  0.00000000E+00
  0.00000000E+00  0.00000000E+00  0.00000000E+00
  0.00000000E+00  0.00000000E+00  0.00000000E+00
  0.00000000E+00  0.00000000E+00  0.00000000E+00
  0.00000000E+00  0.00000000E+00  0.00000000E+00
  0.00000000E+00  0.00000000E+00  0.00000000E+00
  0.00000000E+00  0.00000000E+00  0.00000000E+00
  0.00000000E+00  0.00000000E+00  0.00000000E+00
  0.00000000E+00  0.00000000E+00  0.00000000E+00
  0.00000000E+00  0.00000000E+00  0.00000000E+00
  0.00000000E+00  0.00000000E+00  0.00000000E+00
  0.00000000E+00  0.00000000E+00  0.00000000E+00
  0.00000000E+00  0.00000000E+00  0.00000000E+00
  0.00000000E+00  0.00000000E+00  0.00000000E+00