 C  H  O Si  W                          
   1.0000000000000000     
    23.4112945954000011    0.0000000000000000    0.0000000000000000
     0.0000000000000000   18.1212369514000002    0.0000000000000000
     0.0000000000000000    0.0000000000000000   26.8833665072999999
   C    H    O    Si   W 
     2    48   155    65     1
Selective dynamics
Direct
  0.5021561426532273  0.5353451129217319  0.7663334254968888   T   T   T
  0.5431820174661226  0.4803341213903494  0.7812898581669998   T   T   T
  0.7606081561385452  0.0775037158727798  0.6505293840566893   F   F   F
  0.9264276758775409  0.2510770274020189  0.3563349293400009   F   F   F
  0.7933396966928186  0.1796869618027657  0.3734565163880745   F   F   F
  0.9745391127316694  0.9160166651163806  0.3253027906056829   F   F   F
  0.6257326647787878  0.9358809145528468  0.3752311999972449   F   F   F
  0.8205383986272707  0.9674147281568821  0.3689926296547128   F   F   F
  0.7499930738495308  0.1135868204099637  0.4580381926778543   F   F   F
  0.9155522150970370  0.2218815049605638  0.5091056897433930   F   F   F
  0.5834928632816769  0.2766716107929810  0.3059271726651787   F   F   F
  0.8918695072297353  0.3065809191798010  0.6161479891793533   F   F   F
  0.5946672999733096  0.3329420130308307  0.6147605465820476   F   F   F
  0.5934139329533537  0.8430200064195148  0.5783096897326274   F   F   F
  0.0347672917113115  0.3107314264281200  0.6511292402023940   F   F   F
  0.9352705076763712  0.3919222903134383  0.4541014552468710   F   F   F
  0.7461383787735159  0.5027200569937520  0.4224881911837883   F   F   F
  0.7995525900988767  0.3558596538525123  0.6359626828494669   F   F   F
  0.5911020174091490  0.5410908912841990  0.3780347436188976   F   F   F
  0.7184337867802384  0.6183408503766330  0.3834605945055571   F   F   F
  0.8411529142292764  0.5148346606319478  0.4195961671555111   F   F   F
  0.0047645486475076  0.5762062137926236  0.3577783004107076   F   F   F
  0.8283586993267491  0.6847647379748238  0.4679422553080954   F   F   F
  0.8780579211224477  0.5714934210528781  0.7208803302228901   F   F   F
  0.5199903139612303  0.9579728261245393  0.4217030704774842   F   F   F
  0.2230945721612159  0.9525628997567708  0.3932050219465495   F   F   F
  0.2163736907482345  0.2102595225659201  0.3192303272980936   F   F   F
  0.1575010503616241  0.3022142945701063  0.2789829167401123   F   F   F
  0.3415468765692253  0.1279937701121412  0.3307727584112428   F   F   F
  0.2227158616647102  0.0181669905861312  0.3227384335196248   F   F   F
  0.5114710813633252  0.7968872252785886  0.5466639122658634   F   F   F
  0.3777657340112199  0.2134347461645021  0.6466929192734483   F   F   F
  0.2444482353357316  0.0651885938759733  0.5981334108036123   F   F   F
  0.3153809713091036  0.4595445291366715  0.4424346656312608   F   F   F
  0.4089561837294582  0.4111429232500470  0.4056905975982730   F   F   F
  0.3984995032241372  0.7655216722130831  0.3887867966224334   F   F   F
  0.2442023571188656  0.6278381433407674  0.2943268807443218   F   F   F
  0.3117413815567005  0.3908837780998198  0.3692576443915385   F   F   F
  0.4054742948844066  0.5566877180272058  0.3388198885480591   F   F   F
  0.1393576205880507  0.4603817111425528  0.3519294596467617   F   F   F
  0.5932693451318087  0.6703951929874492  0.3523979868156601   F   F   F
  0.4690068301459220  0.8338355338010288  0.4438283837725479   F   F   F
  0.1220369017753526  0.2949251397066774  0.6108757654437511   F   F   F
  0.0723937694854939  0.6379166874896924  0.6455660755188930   F   F   F
  0.2425980286324005  0.3571547894744782  0.6823148474738971   F   F   F
  0.2450555246738659  0.7876276622155345  0.6691459784834990   F   F   F
  0.5186536483685487  0.5898705011340439  0.7566326009987350   T   T   T
  0.4600927661449603  0.5350358525504220  0.7839217665584073   T   T   T
  0.5289314222637884  0.4337115380003809  0.8038528751961209   T   T   T
  0.5879877740723387  0.4954727766625240  0.7855780473015486   T   T   T
  0.3689417337945073  0.6207631619836036  0.4390000177989322   F   F   F
  0.3468156499810249  0.4764419325104683  0.4203881275781143   F   F   F
  0.8610112912963999  0.5386007440521539  0.6966710672931526   F   F   F
  0.3489382399137426  0.9297214873546551  0.5305232187025695   F   F   F
  0.0331356719719196  0.9043828571406891  0.5285135411069319   F   F   F
  0.6363554822990451  0.0512766101230895  0.4893766723794641   F   F   F
  0.0686461464807948  0.0246734860376421  0.3951107345583225   F   F   F
  0.4518995424319527  0.1019703893923420  0.4205972814427668   F   F   F
  0.8058841492861291  0.1860582442549372  0.4831666074103040   F   F   F
  0.9738074288770804  0.1536454143222699  0.5987447663892738   F   F   F
  0.2747652928840907  0.2715809355732119  0.4485122250900346   F   F   F
  0.5563541661963498  0.7474993557411977  0.4417510122690658   F   F   F
  0.3919898283138750  0.9440840681521365  0.6195255143766190   F   F   F
  0.1775172398589788  0.3223765138921024  0.4052731245300478   F   F   F
  0.8664264549208838  0.6566692971900423  0.6374305742835205   F   F   F
  0.8656960102276017  0.9395849966406260  0.4670384592975196   F   F   F
  0.3010471365896024  0.7333448994373697  0.4579252567998537   F   F   F
  0.4216109456219570  0.2336602815779614  0.3795963030273342   F   F   F
  0.8110901212776582  0.4370750747110179  0.5202593355447362   F   F   F
  0.9840607408423665  0.0448216371606236  0.5210029814280404   F   F   F
  0.5083514648068501  0.4372454872444678  0.6289712085393830   F   F   F
  0.0345364061182565  0.8923558262150451  0.4294052572495062   F   F   F
  0.9630365419446250  0.2756033725070424  0.3512576249606170   F   F   F
  0.0696266904488567  0.3085138300933252  0.3763717815531962   F   F   F
  0.2082956575310035  0.7010523587587443  0.3953601014000157   F   F   F
  0.0389012629134911  0.3915099801427786  0.4991087535393461   F   F   F
  0.2394860091625688  0.2580260729927062  0.5880848714827493   F   F   F
  0.3977050572685528  0.1667033360228700  0.6442185285081194   F   F   F
  0.4538171939629265  0.5363117341428634  0.5780641469306573   F   F   F
  0.9097566849217387  0.7213416502872363  0.5574569006808545   F   F   F
  0.8691272713299156  0.0804514069218953  0.4422783307318099   F   F   F
  0.5725767945756743  0.6397399174292815  0.3761317316733468   F   F   F
  0.1424265590957958  0.1315335633763652  0.3759722435750490   F   F   F
  0.3502648963381390  0.7374031648005612  0.6068609498891817   F   F   F
  0.9109960497951874  0.8174556359885301  0.4831796236075121   F   F   F
  0.0613380104910135  0.5092797703962546  0.4422534820284341   F   F   F
  0.7083390277084121  0.5275746164097512  0.4199576800001736   F   F   F
  0.0754872572765848  0.7892148694573891  0.4829941554854784   F   F   F
  0.7004647711973604  0.7999637795744192  0.4326352913293690   F   F   F
  0.7302664820133202  0.0214605920081965  0.5430291481660348   F   F   F
  0.9193260446911466  0.2738394666229169  0.6322006861309859   F   F   F
  0.7349792803309469  0.8246644586212923  0.6128077352122432   F   F   F
  0.6251219543867705  0.4998020666246745  0.4863787091564404   F   F   F
  0.5565732987385132  0.6021111049465162  0.4672494240254110   F   F   F
  0.4264115329785838  0.2184699931008893  0.5551155601370894   F   F   F
  0.9782900938336425  0.7006516981681088  0.4767956400891720   F   F   F
  0.6541413200760999  0.5661497786044762  0.6333340481130065   F   F   F
  0.3968022340962349  0.7184107049790924  0.5154528558839857   F   F   F
  0.6026900685395375  0.4900735163346042  0.3856709925442061   F   F   F
  0.7201511157913103  0.6026546443753844  0.5569658055830615   F   F   F
  0.1465804878706010  0.3364788187981631  0.6190397370954415   F   F   F
  0.0661378403605468  0.5205360661469314  0.5422054964194203   F   F   F
  0.8186532941810896  0.8569572510652534  0.5364619448441346   F   F   F
  0.8282155306614527  0.3277932072868879  0.4519033357708793   F   F   F
  0.5278367881716761  0.2708587663281818  0.5323195393804951   F   F   F
  0.7369701930191397  0.4709319322741905  0.5956635926130218   F   F   F
  0.5574339360995921  0.1448391697401377  0.3949085375269945   F   F   F
  0.8059640829904495  0.2288206350331308  0.3832928600033014   F   F   F
  0.2374462167629616  0.9256588150352059  0.5079195554207132   F   F   F
  0.6923880122839776  0.7476984760283685  0.5417246371052329   F   F   F
  0.9236247561847293  0.9225436417866959  0.5528213356883498   F   F   F
  0.5257372223541736  0.2901891841439053  0.3985559351687087   F   F   F
  0.4685403419092538  0.9613775417878045  0.5461467690866826   F   F   F
  0.8380528632644300  0.0670026821389200  0.5397851604241808   F   F   F
  0.5379032530424510  0.0888255538748268  0.4862370923690094   F   F   F
  0.3501934425152129  0.1590167969953313  0.4396363938456389   F   F   F
  0.0117603228167908  0.9348219644628841  0.3352437574830063   F   F   F
  0.4561834502121584  0.5574229090303717  0.6728377748729386   F   F   F
  0.6549652215522386  0.8978055688713980  0.3792282539811964   F   F   F
  0.0762933429470323  0.6584343219673698  0.4358810225764742   F   F   F
  0.4529402372376623  0.3766674321974151  0.5526691349055710   F   F   F
  0.7192194366265099  0.6728289159070471  0.3795829994963285   F   F   F
  0.4504167007117346  0.6760449829818498  0.6010525968088416   F   F   F
  0.7525510591055777  0.6817326399647712  0.4762954835743187   F   F   F
  0.7797994087558493  0.0937692154443468  0.6205263909200553   F   F   F
  0.9932746155468877  0.2804215379851627  0.4484029789284989   F   F   F
  0.5352013630215282  0.4796521254693999  0.5323315158935458   F   F   F
  0.8167775852155614  0.4714697990329526  0.4234422052650615   F   F   F
  0.2361957214602128  0.1170540251321128  0.6050400476713378   F   F   F
  0.2035333057163413  0.8031093806419847  0.4705336293601903   F   F   F
  0.2398303299870008  0.5312215267674176  0.5228002951677979   F   F   F
  0.0611241976618899  0.5978283687344046  0.6238332749588977   F   F   F
  0.0460740722049948  0.5747547567386349  0.3541786312221902   F   F   F
  0.8005462258432274  0.9508740204414963  0.6056693115008045   F   F   F
  0.5379909097114037  0.0001055563431080  0.4045027517534763   F   F   F
  0.6072545331088364  0.2839764302582779  0.6051395551323466   F   F   F
  0.8615461075340960  0.9764889140549542  0.3692063291070653   F   F   F
  0.0949113079819810  0.1214308999659721  0.4670823258906296   F   F   F
  0.1716840364460310  0.1766549244268347  0.5306797647456705   F   F   F
  0.6409886548841044  0.6768467847972985  0.4548155821771758   F   F   F
  0.4367877834064799  0.3821765454631461  0.3864132536704119   F   F   F
  0.5742951016742950  0.0298816536022244  0.5708302481617480   F   F   F
  0.1514377462021059  0.5658160880630732  0.3889583608347777   F   F   F
  0.2677397900769023  0.5747455959843037  0.3923062966030031   F   F   F
  0.4402584600309112  0.2946062468761355  0.4703244327181508   F   F   F
  0.2380096658898907  0.1309191939196950  0.4299011866524154   F   F   F
  0.0732371463929766  0.1220239645476155  0.5623975194841435   F   F   F
  0.8451432908769050  0.5165228593914009  0.5997353676194450   F   F   F
  0.6211794284267498  0.2523479411625829  0.4109054511829981   F   F   F
  0.6026669933739228  0.8639347303935594  0.4672234595428861   F   F   F
  0.0313853912181870  0.1676978936843696  0.3889918752683101   F   F   F
  0.6072112266194765  0.1673739468088087  0.5477199430232105   F   F   F
  0.1327997263300347  0.9107627091389077  0.4794870772378772   F   F   F
  0.0802214165911366  0.2527684042513769  0.5119205692130109   F   F   F
  0.3728619762161287  0.0761153580891545  0.5682369350447871   F   F   F
  0.0662861271630888  0.6689626972118319  0.5356820307563410   F   F   F
  0.6664883802866157  0.3877929421623847  0.4300115561107631   F   F   F
  0.7992445112497109  0.7019344070157487  0.5642131938078307   F   F   F
  0.7038385586134339  0.9296164978960562  0.4701845621740759   F   F   F
  0.5985346034026833  0.6069763505938823  0.5528110997250408   F   F   F
  0.7228402998664549  0.2660927186779389  0.4516681052539582   F   F   F
  0.9775977626479886  0.2863394922800566  0.5472191544614020   F   F   F
  0.1581025952156097  0.6021209199565689  0.5705255066742083   F   F   F
  0.6333338448107071  0.2991911438631831  0.5078007023299378   F   F   F
  0.8204130974394843  0.3690817798233965  0.6060771999068351   F   F   F
  0.9585781980894978  0.9996511089661340  0.4169530046787955   F   F   F
  0.2823153966881975  0.1674520096651264  0.5186207564606278   F   F   F
  0.2492575497532457  0.4154409537437118  0.4610556955705079   F   F   F
  0.2720527217745428  0.8218462960876849  0.5687628467364334   F   F   F
  0.2036681493187373  0.6579812340450601  0.4868887178860462   F   F   F
  0.1471234534495878  0.4484779412686422  0.4925449251270066   F   F   F
  0.2251836837322472  0.3952887219422507  0.5567050440459269   F   F   F
  0.9114169782859136  0.4251526627827786  0.4737188145108959   F   F   F
  0.8697881761182842  0.6769681751199315  0.4641535209108483   F   F   F
  0.7381202078118392  0.0652426831333841  0.4452296472671975   F   F   F
  0.2221834364607460  0.9021892544008736  0.4079468165165281   F   F   F
  0.2516443694464954  0.3747441871944517  0.6492196522574858   F   F   F
  0.6304646184270410  0.8551002184737868  0.5937860211510824   F   F   F
  0.4102232653459481  0.7614704566036323  0.4234373851432949   F   F   F
  0.9177713527308597  0.1684463582641555  0.5082451459005242   F   F   F
  0.1325470584190001  0.4159441784311042  0.3322726622007863   F   F   F
  0.1551476808853849  0.2759313198108586  0.3105604161752922   F   F   F
  0.3730051452693530  0.1033151078608086  0.3479534200993726   F   F   F
  0.0348996577004641  0.2640659522396334  0.6333911030449570   F   F   F
  0.5726892607782261  0.2292762559834074  0.3200996781806822   F   F   F
  0.2449051044351265  0.7422975974915218  0.6499859609328524   F   F   F
  0.2073742988973706  0.6208131143021092  0.3103690611938177   F   F   F
  0.2753744117793318  0.3645993636485585  0.3673758273212613   F   F   F
  0.3653508124869589  0.5699946967807392  0.3422207943191111   F   F   F
  0.2263808502218509  0.0285888886445491  0.3581188824802055   F   F   F
  0.2412033350308818  0.1684862922268238  0.3293429668079639   F   F   F
  0.5012729261715734  0.8647096864761750  0.4548416832162587   F   F   F
  0.5504017891493973  0.7999919062137693  0.5343170356067475   F   F   F
  0.5447229453038389  0.6170555918126936  0.6338739159666957   F   F   F
  0.4785408571804126  0.0931214448273820  0.5960265806361136   F   F   F
  0.2623051379768455  0.6666439023086923  0.5686064076749986   F   F   F
  0.4428083971729890  0.8183792750857819  0.5817072567777615   F   F   F
  0.7655395855863887  0.5888438118456421  0.6496456921157829   F   F   F
  0.8448944384900514  0.8042410289168131  0.6227784711862512   F   F   F
  0.6394531759395932  0.7115115309193385  0.6215078840400921   F   F   F
  0.0081263579760531  0.0055982230546192  0.6029278167222714   F   F   F
  0.2847205372907808  0.9739916001935427  0.5935647464394052   F   F   F
  0.5035937722751953  0.9428555686455056  0.6284928441709852   F   F   F
  0.5598521550981417  0.4291389445185843  0.7233472857445946   T   T   T
  0.4386830594426598  0.4094672896567957  0.7201004332715613   T   T   T
  0.0832252792583148  0.5788283653282704  0.4064130837160320   F   F   F
  0.4090549385865501  0.7368866212240022  0.5749164030881175   F   F   F
  0.8417638189676637  0.4138611797262541  0.4678389696388976   F   F   F
  0.0170894936830805  0.9628901034461137  0.3936113541928137   F   F   F
  0.0147002066459194  0.2565983382467678  0.3910814136036507   F   F   F
  0.0096522020908765  0.0870962112351563  0.5723420880707977   F   F   F
  0.6092513773466095  0.6293997020364870  0.6108738754099790   F   F   F
  0.2140172392866049  0.4483861742611168  0.5096814894133104   F   F   F
  0.9150621278077509  0.7279690019552447  0.4962545438487922   F   F   F
  0.5205785424995497  0.0828636906206981  0.4259865881079392   F   F   F
  0.4189496301534206  0.1409249029361490  0.5887869720860266   F   F   F
  0.0834525281692322  0.1115801415890019  0.4069808717903314   F   F   F
  0.7018979345349692  0.0172543190204806  0.4873230277072054   F   F   F
  0.6650593546526977  0.8704455280017100  0.4374764361266443   F   F   F
  0.6500987440092842  0.4764351215901996  0.4301508871204760   F   F   F
  0.1984606475676856  0.8848902959224461  0.4639906909803457   F   F   F
  0.2143555585100430  0.3390300991458162  0.6032873531451131   F   F   F
  0.6733784974431032  0.7852075787184987  0.5948585378493547   F   F   F
  0.2165074605126165  0.6140085152407693  0.5385428890618513   F   F   F
  0.3687891183983183  0.7075357978371670  0.4592092972079129   F   F   F
  0.7972190257004144  0.8606699233603479  0.5954906069691788   F   F   F
  0.8796731200090946  0.8846270636598490  0.5119394965402009   F   F   F
  0.5766002975608799  0.5470795461586349  0.5120491035980450   F   F   F
  0.5897470262416178  0.0874611722690872  0.5252315340109988   F   F   F
  0.8581223412116756  0.1245212968770772  0.4951759473310489   F   F   F
  0.8355370463736236  0.5760124870203924  0.6458210037961649   F   F   F
  0.1337385207956885  0.3327269681576155  0.3568722791356791   F   F   F
  0.7906552883383853  0.2523473101681333  0.4418726542293072   F   F   F
  0.3991760968159852  0.1499029084653785  0.3960031981861079   F   F   F
  0.8559681870583873  0.7224866523068272  0.5964742302832349   F   F   F
  0.2829668610162486  0.9065565146475620  0.5495788457078348   F   F   F
  0.0230747323006639  0.3028555791154801  0.5022455100715746   F   F   F
  0.5745593848382811  0.6678981454944264  0.4355643604055430   F   F   F
  0.2302409542512009  0.7250085610899788  0.4519695445397645   F   F   F
  0.5940442404650739  0.2560542018073022  0.5483045559611739   F   F   F
  0.9755470104047603  0.2443955749704330  0.6025895812872122   F   F   F
  0.8889063590695159  0.9978170634156527  0.4242001869335610   F   F   F
  0.1048796274079677  0.1678650712316596  0.5177384033615979   F   F   F
  0.0481456608991806  0.7054451579541592  0.4826301941714348   F   F   F
  0.2321594302674299  0.1780848714425929  0.5609673402150079   F   F   F
  0.5614078070968063  0.2301933342515454  0.3812261074005363   F   F   F
  0.4761576238603595  0.5973546313849454  0.6209783951263148   F   F   F
  0.2811547966676073  0.7425581706462623  0.5978608095902160   F   F   F
  0.2085008253050660  0.6158079090204183  0.3717945352858223   F   F   F
  0.7403416799145361  0.6826506448316820  0.5358686088005769   F   F   F
  0.9865262065802014  0.9628404001628610  0.5502776220683714   F   F   F
  0.7031045578374417  0.7092262176789319  0.4342603982179796   F   F   F
  0.7881491695151723  0.0317279224665157  0.5766933854169807   F   F   F
  0.4563138980148480  0.3008596595434909  0.4092878915485585   F   F   F
  0.4497257615155519  0.9071705753166626  0.5944109365310979   F   F   F
  0.5087575680953478  0.0120649578520755  0.5859492300333144   F   F   F
  0.2442471516899545  0.3428143883977626  0.4209471039025985   F   F   F
  0.6585253437214931  0.3024101753650825  0.4503479098948588   F   F   F
  0.4606180163010194  0.2901511205428164  0.5287980802444991   F   F   F
  0.3372993678552234  0.5623506062823083  0.3990830096962270   F   F   F
  0.8034338314596710  0.4486323729080155  0.5798814660487395   F   F   F
  0.0692097893945274  0.8712672202206235  0.4805055068825652   F   F   F
  0.2119075788647606  0.1168623858285542  0.3735965933534686   F   F   F
  0.0782328566383796  0.4663930595782091  0.4946876202126234   F   F   F
  0.5575701889662170  0.8247481631462747  0.4747302534090920   F   F   F
  0.7184538427257294  0.5565369397127782  0.6096378963093656   F   F   F
  0.2866421242385897  0.1825098030655994  0.4591107728955208   F   F   F
  0.0879323644357441  0.5976971159399938  0.5676742194717193   F   F   F
  0.3537113644090866  0.9906599576001227  0.5781765223236022   F   F   F
  0.4853181744441173  0.4541284372146706  0.5715219472570325   F   F   F
  0.4927383876970168  0.4648595235798823  0.6973536167218690   T   T   T

  0.00000000E+00  0.00000000E+00  0.00000000E+00
  0.00000000E+00  0.00000000E+00  0.00000000E+00
  0.00000000E+00  0.00000000E+00  0.00000000E+00
  0.00000000E+00  0.00000000E+00  0.00000000E+00
  0.00000000E+00  0.00000000E+00  0.00000000E+00
  0.00000000E+00  0.00000000E+00  0.00000000E+00
  0.00000000E+00  0.00000000E+00  0.00000000E+00
  0.00000000E+00  0.00000000E+00  0.00000000E+00
  0.00000000E+00  0.00000000E+00  0.00000000E+00
  0.00000000E+00  0.00000000E+00  0.00000000E+00
  0.00000000E+00  0.00000000E+00  0.00000000E+00
  0.00000000E+00  0.00000000E+00  0.00000000E+00
  0.00000000E+00  0.00000000E+00  0.00000000E+00
  0.00000000E+00  0.00000000E+00  0.00000000E+00
  0.00000000E+00  0.00000000E+00  0.00000000E+00
  0.00000000E+00  0.00000000E+00  0.00000000E+00
  0.00000000E+00  0.00000000E+00  0.00000000E+00
  0.00000000E+00  0.00000000E+00  0.00000000E+00
  0.00000000E+00  0.00000000E+00  0.00000000E+00
  0.00000000E+00  0.00000000E+00  0.00000000E+00
  0.00000000E+00  0.00000000E+00  0.00000000E+00
  0.00000000E+00  0.00000000E+00  0.00000000E+00
  0.00000000E+00  0.00000000E+00  0.00000000E+00
  0.00000000E+00  0.00000000E+00  0.00000000E+00
  0.00000000E+00  0.00000000E+00  0.00000000E+00
  0.00000000E+00  0.00000000E+00  0.00000000E+00
  0.00000000E+00  0.00000000E+00  0.00000000E+00
  0.00000000E+00  0.00000000E+00  0.00000000E+00
  0.00000000E+00  0.00000000E+00  0.00000000E+00
  0.00000000E+00  0.00000000E+00  0.00000000E+00
  0.00000000E+00  0.00000000E+00  0.00000000E+00
  0.00000000E+00  0.00000000E+00  0.00000000E+00
  0.00000000E+00  0.00000000E+00  0.00000000E+00
  0.00000000E+00  0.00000000E+00  0.00000000E+00
  0.00000000E+00  0.00000000E+00  0.00000000E+00
  0.00000000E+00  0.00000000E+00  0.00000000E+00
  0.00000000E+00  0.00000000E+00  0.00000000E+00
  0.00000000E+00  0.00000000E+00  0.00000000E+00
  0.00000000E+00  0.00000000E+00  0.00000000E+00
  0.00000000E+00  0.00000000E+00  0.00000000E+00
  0.00000000E+00  0.00000000E+00  0.00000000E+00
  0.00000000E+00  0.00000000E+00  0.00000000E+00
  0.00000000E+00  0.00000000E+00  0.00000000E+00
  0.00000000E+00  0.00000000E+00  0.00000000E+00
  0.00000000E+00  0.00000000E+00  0.00000000E+00
  0.00000000E+00  0.00000000E+00  0.00000000E+00
  0.00000000E+00  0.00000000E+00  0.00000000E+00
  0.00000000E+00  0.00000000E+00  0.00000000E+00
  0.00000000E+00  0.00000000E+00  0.00000000E+00
  0.00000000E+00  0.00000000E+00  0.00000000E+00
  0.00000000E+00  0.00000000E+00  0.00000000E+00
  0.00000000E+00  0.00000000E+00  0.00000000E+00
  0.00000000E+00  0.00000000E+00  0.00000000E+00
  0.00000000E+00  0.00000000E+00  0.00000000E+00
  0.00000000E+00  0.00000000E+00  0.00000000E+00
  0.00000000E+00  0.00000000E+00  0.00000000E+00
  0.00000000E+00  0.00000000E+00  0.00000000E+00
  0.00000000E+00  0.00000000E+00  0.00000000E+00
  0.00000000E+00  0.00000000E+00  0.00000000E+00
  0.00000000E+00  0.00000000E+00  0.00000000E+00
  0.00000000E+00  0.00000000E+00  0.00000000E+00
  0.00000000E+00  0.00000000E+00  0.00000000E+00
  0.00000000E+00  0.00000000E+00  0.00000000E+00
  0.00000000E+00  0.00000000E+00  0.00000000E+00
  0.00000000E+00  0.00000000E+00  0.00000000E+00
  0.00000000E+00  0.00000000E+00  0.00000000E+00
  0.00000000E+00  0.00000000E+00  0.00000000E+00
  0.00000000E+00  0.00000000E+00  0.00000000E+00
  0.00000000E+00  0.00000000E+00  0.00000000E+00
  0.00000000E+00  0.00000000E+00  0.00000000E+00
  0.00000000E+00  0.00000000E+00  0.00000000E+00
  0.00000000E+00  0.00000000E+00  0.00000000E+00
  0.00000000E+00  0.00000000E+00  0.00000000E+00
  0.00000000E+00  0.00000000E+00  0.00000000E+00
  0.00000000E+00  0.00000000E+00  0.00000000E+00
  0.00000000E+00  0.00000000E+00  0.00000000E+00
  0.00000000E+00  0.00000000E+00  0.00000000E+00
  0.00000000E+00  0.00000000E+00  0.00000000E+00
  0.00000000E+00  0.00000000E+00  0.00000000E+00
  0.00000000E+00  0.00000000E+00  0.00000000E+00
  0.00000000E+00  0.00000000E+00  0.00000000E+00
  0.00000000E+00  0.00000000E+00  0.00000000E+00
  0.00000000E+00  0.00000000E+00  0.00000000E+00
  0.00000000E+00  0.00000000E+00  0.00000000E+00
  0.00000000E+00  0.00000000E+00  0.00000000E+00
  0.00000000E+00  0.00000000E+00  0.00000000E+00
  0.00000000E+00  0.00000000E+00  0.00000000E+00
  0.00000000E+00  0.00000000E+00  0.00000000E+00
  0.00000000E+00  0.00000000E+00  0.00000000E+00
  0.00000000E+00  0.00000000E+00  0.00000000E+00
  0.00000000E+00  0.00000000E+00  0.00000000E+00
  0.00000000E+00  0.00000000E+00  0.00000000E+00
  0.00000000E+00  0.00000000E+00  0.00000000E+00
  0.00000000E+00  0.00000000E+00  0.00000000E+00
  0.00000000E+00  0.00000000E+00  0.00000000E+00
  0.00000000E+00  0.00000000E+00  0.00000000E+00
  0.00000000E+00  0.00000000E+00  0.00000000E+00
  0.00000000E+00  0.00000000E+00  0.00000000E+00
  0.00000000E+00  0.00000000E+00  0.00000000E+00
  0.00000000E+00  0.00000000E+00  0.00000000E+00
  0.00000000E+00  0.00000000E+00  0.00000000E+00
  0.00000000E+00  0.00000000E+00  0.00000000E+00
  0.00000000E+00  0.00000000E+00  0.00000000E+00
  0.00000000E+00  0.00000000E+00  0.00000000E+00
  0.00000000E+00  0.00000000E+00  0.00000000E+00
  0.00000000E+00  0.00000000E+00  0.00000000E+00
  0.00000000E+00  0.00000000E+00  0.00000000E+00
  0.00000000E+00  0.00000000E+00  0.00000000E+00
  0.00000000E+00  0.00000000E+00  0.00000000E+00
  0.00000000E+00  0.00000000E+00  0.00000000E+00
  0.00000000E+00  0.00000000E+00  0.00000000E+00
  0.00000000E+00  0.00000000E+00  0.00000000E+00
  0.00000000E+00  0.00000000E+00  0.00000000E+00
  0.00000000E+00  0.00000000E+00  0.00000000E+00
  0.00000000E+00  0.00000000E+00  0.00000000E+00
  0.00000000E+00  0.00000000E+00  0.00000000E+00
  0.00000000E+00  0.00000000E+00  0.00000000E+00
  0.00000000E+00  0.00000000E+00  0.00000000E+00
  0.00000000E+00  0.00000000E+00  0.00000000E+00
  0.00000000E+00  0.00000000E+00  0.00000000E+00
  0.00000000E+00  0.00000000E+00  0.00000000E+00
  0.00000000E+00  0.00000000E+00  0.00000000E+00
  0.00000000E+00  0.00000000E+00  0.00000000E+00
  0.00000000E+00  0.00000000E+00  0.00000000E+00
  0.00000000E+00  0.00000000E+00  0.00000000E+00
  0.00000000E+00  0.00000000E+00  0.00000000E+00
  0.00000000E+00  0.00000000E+00  0.00000000E+00
  0.00000000E+00  0.00000000E+00  0.00000000E+00
  0.00000000E+00  0.00000000E+00  0.00000000E+00
  0.00000000E+00  0.00000000E+00  0.00000000E+00
  0.00000000E+00  0.00000000E+00  0.00000000E+00
  0.00000000E+00  0.00000000E+00  0.00000000E+00
  0.00000000E+00  0.00000000E+00  0.00000000E+00
  0.00000000E+00  0.00000000E+00  0.00000000E+00
  0.00000000E+00  0.00000000E+00  0.00000000E+00
  0.00000000E+00  0.00000000E+00  0.00000000E+00
  0.00000000E+00  0.00000000E+00  0.00000000E+00
  0.00000000E+00  0.00000000E+00  0.00000000E+00
  0.00000000E+00  0.00000000E+00  0.00000000E+00
  0.00000000E+00  0.00000000E+00  0.00000000E+00
  0.00000000E+00  0.00000000E+00  0.00000000E+00
  0.00000000E+00  0.00000000E+00  0.00000000E+00
  0.00000000E+00  0.00000000E+00  0.00000000E+00
  0.00000000E+00  0.00000000E+00  0.00000000E+00
  0.00000000E+00  0.00000000E+00  0.00000000E+00
  0.00000000E+00  0.00000000E+00  0.00000000E+00
  0.00000000E+00  0.00000000E+00  0.00000000E+00
  0.00000000E+00  0.00000000E+00  0.00000000E+00
  0.00000000E+00  0.00000000E+00  0.00000000E+00
  0.00000000E+00  0.00000000E+00  0.00000000E+00
  0.00000000E+00  0.00000000E+00  0.00000000E+00
  0.00000000E+00  0.00000000E+00  0.00000000E+00
  0.00000000E+00  0.00000000E+00  0.00000000E+00
  0.00000000E+00  0.00000000E+00  0.00000000E+00
  0.00000000E+00  0.00000000E+00  0.00000000E+00
  0.00000000E+00  0.00000000E+00  0.00000000E+00
  0.00000000E+00  0.00000000E+00  0.00000000E+00
  0.00000000E+00  0.00000000E+00  0.00000000E+00
  0.00000000E+00  0.00000000E+00  0.00000000E+00
  0.00000000E+00  0.00000000E+00  0.00000000E+00
  0.00000000E+00  0.00000000E+00  0.00000000E+00
  0.00000000E+00  0.00000000E+00  0.00000000E+00
  0.00000000E+00  0.00000000E+00  0.00000000E+00
  0.00000000E+00  0.00000000E+00  0.00000000E+00
  0.00000000E+00  0.00000000E+00  0.00000000E+00
  0.00000000E+00  0.00000000E+00  0.00000000E+00
  0.00000000E+00  0.00000000E+00  0.00000000E+00
  0.00000000E+00  0.00000000E+00  0.00000000E+00
  0.00000000E+00  0.00000000E+00  0.00000000E+00
  0.00000000E+00  0.00000000E+00  0.00000000E+00
  0.00000000E+00  0.00000000E+00  0.00000000E+00
  0.00000000E+00  0.00000000E+00  0.00000000E+00
  0.00000000E+00  0.00000000E+00  0.00000000E+00
  0.00000000E+00  0.00000000E+00  0.00000000E+00
  0.00000000E+00  0.00000000E+00  0.00000000E+00
  0.00000000E+00  0.00000000E+00  0.00000000E+00
  0.00000000E+00  0.00000000E+00  0.00000000E+00
  0.00000000E+00  0.00000000E+00  0.00000000E+00
  0.00000000E+00  0.00000000E+00  0.00000000E+00
  0.00000000E+00  0.00000000E+00  0.00000000E+00
  0.00000000E+00  0.00000000E+00  0.00000000E+00
  0.00000000E+00  0.00000000E+00  0.00000000E+00
  0.00000000E+00  0.00000000E+00  0.00000000E+00
  0.00000000E+00  0.00000000E+00  0.00000000E+00
  0.00000000E+00  0.00000000E+00  0.00000000E+00
  0.00000000E+00  0.00000000E+00  0.00000000E+00
  0.00000000E+00  0.00000000E+00  0.00000000E+00
  0.00000000E+00  0.00000000E+00  0.00000000E+00
  0.00000000E+00  0.00000000E+00  0.00000000E+00
  0.00000000E+00  0.00000000E+00  0.00000000E+00
  0.00000000E+00  0.00000000E+00  0.00000000E+00
  0.00000000E+00  0.00000000E+00  0.00000000E+00
  0.00000000E+00  0.00000000E+00  0.00000000E+00
  0.00000000E+00  0.00000000E+00  0.00000000E+00
  0.00000000E+00  0.00000000E+00  0.00000000E+00
  0.00000000E+00  0.00000000E+00  0.00000000E+00
  0.00000000E+00  0.00000000E+00  0.00000000E+00
  0.00000000E+00  0.00000000E+00  0.00000000E+00
  0.00000000E+00  0.00000000E+00  0.00000000E+00
  0.00000000E+00  0.00000000E+00  0.00000000E+00
  0.00000000E+00  0.00000000E+00  0.00000000E+00