 C  H  O Si  W                          
   1.0000000000000000     
    23.4112945954000011    0.0000000000000000    0.0000000000000000
     0.0000000000000000   18.1212369513999967    0.0000000000000000
     0.0000000000000000    0.0000000000000000   26.8833665072999999
   C    H    O    Si   W 
     2    48   155    65     1
Selective dynamics
Direct
  0.4579734800129144  0.5779606401250963  0.7998753565646975   T   T   T
  0.4720658772940208  0.5100623189966763  0.8156884703633444   T   T   T
  0.7604859681319861  0.1026990606516759  0.6512276044905235   T   T   T
  0.9263371441120825  0.2763992582155126  0.3563349293400009   F   F   F
  0.7932491649273601  0.2050091926162594  0.3734565163880745   F   F   F
  0.9744485809662109  0.9413388959298743  0.3253027906056829   F   F   F
  0.6256421330133293  0.9612031453663406  0.3752311999972449   F   F   F
  0.8204478668618123  0.9927369589703758  0.3689926296547128   F   F   F
  0.7499025420840724  0.1389090512234574  0.4580381926778543   F   F   F
  0.9152198334478537  0.2471254675230314  0.5101156679327552   T   T   T
  0.5834023315162185  0.3019938416064747  0.3059271726651787   F   F   F
  0.8925419605033856  0.3328471565280213  0.6153432965672977   T   T   T
  0.5904058517347597  0.3580376795705493  0.6141452910667959   T   T   T
  0.5931882706777519  0.8682417611866265  0.5774557757108206   T   T   T
  0.0355348665554109  0.3359557347770162  0.6505987636814676   T   T   T
  0.9351799759109127  0.4172445211269249  0.4541014552468710   F   F   F
  0.7460478470080574  0.5280422878072457  0.4224881911837883   F   F   F
  0.8102522533325759  0.3921188030189150  0.6408253101932427   T   T   T
  0.5910114856436905  0.5664131220976927  0.3780347436188976   F   F   F
  0.7183432550147799  0.6436630811901267  0.3834605945055571   F   F   F
  0.8410623824638179  0.5401568914454415  0.4195961671555111   F   F   F
  0.0046740168820492  0.6015284446061173  0.3577783004107076   F   F   F
  0.8282681675612906  0.7100869687883176  0.4679422553080954   F   F   F
  0.8701473666718356  0.5917718400003349  0.7238284769366087   T   T   T
  0.5198997821957718  0.9832950569380330  0.4217030704774842   F   F   F
  0.2230040403957574  0.9778851305702645  0.3932050219465495   F   F   F
  0.2162831589827761  0.2355817533794067  0.3192303272980936   F   F   F
  0.1574105185961656  0.3275365253836000  0.2789829167401123   F   F   F
  0.3414563448037669  0.1533160009256349  0.3307727584112428   F   F   F
  0.2226253298992518  0.0434892213996250  0.3227384335196248   F   F   F
  0.5111581883942153  0.8221351574846967  0.5465631334447009   T   T   T
  0.3795553613300279  0.2394367888416039  0.6472768395379567   T   T   T
  0.2445871124371553  0.0905051450706135  0.5976244179162590   T   T   T
  0.3152904395436451  0.4848667599501653  0.4424346656312608   F   F   F
  0.4088656519639997  0.4364651540635265  0.4056905975982730   F   F   F
  0.3984089714586787  0.7908439030265697  0.3887867966224334   F   F   F
  0.2441118253534071  0.6531603741542611  0.2943268807443218   F   F   F
  0.3116508497912420  0.4162060089133064  0.3692576443915385   F   F   F
  0.4053837631189481  0.5820099488406996  0.3388198885480591   F   F   F
  0.1392670888225922  0.4857039419560465  0.3519294596467617   F   F   F
  0.5931788133663503  0.6957174238009429  0.3523979868156601   F   F   F
  0.4689162983804636  0.8591577646145012  0.4438283837725479   F   F   F
  0.1214308820727676  0.3188757197272147  0.6092517956090354   T   T   T
  0.0723712741369348  0.6615526389099688  0.6459907285338187   T   T   T
  0.2414487553530265  0.3802093244658820  0.6823186758541887   T   T   T
  0.2455531572839716  0.8151327877963227  0.6684851093090549   T   T   T
  0.4904707008369413  0.6199240273224387  0.7927154354096717   T   T   T
  0.4135553401851849  0.5939234712645225  0.7936491247282076   T   T   T
  0.5165422296964620  0.4940077918769180  0.8213188785264920   T   T   T
  0.4397486671831733  0.4678051600971913  0.8225219629495257   T   T   T
  0.3688512020290489  0.6460853927970973  0.4390000177989322   F   F   F
  0.3467251182155664  0.5017641633239620  0.4203881275781143   F   F   F
  0.8622096163267250  0.5622837944270522  0.6945850603268167   T   T   T
  0.3496215296532097  0.9535423013646467  0.5303411226777515   T   T   T
  0.0334887130993252  0.9296223988881074  0.5288207966909526   T   T   T
  0.6362649505335867  0.0765988409365832  0.4893766723794641   F   F   F
  0.0685556147153363  0.0499957168511358  0.3951107345583225   F   F   F
  0.4518090106664943  0.1272926202058358  0.4205972814427668   F   F   F
  0.8057936175206706  0.2113804750684309  0.4831666074103040   F   F   F
  0.9734202623397303  0.1788725884756858  0.5987329712588353   T   T   T
  0.2746747611186322  0.2969031663867057  0.4485122250900346   F   F   F
  0.5562636344308913  0.7728215865546915  0.4417510122690658   F   F   F
  0.3925007062359892  0.9670498958717934  0.6197690219603491   T   T   T
  0.1774267080935203  0.3476987447055961  0.4052731245300478   F   F   F
  0.8672957986390409  0.6847821447130469  0.6384344518516746   T   T   T
  0.8656054784621432  0.9649072274541197  0.4670384592975196   F   F   F
  0.3009566048241439  0.7586671302508634  0.4579252567998537   F   F   F
  0.4215204138564985  0.2589825123914551  0.3795963030273342   F   F   F
  0.8110105052187839  0.4633000908989381  0.5202031201114237   T   T   T
  0.9843152755560731  0.0698910828918242  0.5211094649595809   T   T   T
  0.5187517881770487  0.4554578675447121  0.6262080834406966   T   T   T
  0.0344458743527980  0.9176780570285388  0.4294052572495062   F   F   F
  0.9629460101791665  0.3009256033205361  0.3512576249606170   F   F   F
  0.0695361586833982  0.3338360609068189  0.3763717815531962   F   F   F
  0.2082051257655451  0.7263745895722380  0.3953601014000157   F   F   F
  0.0388107311480326  0.4168322109562652  0.4991087535393461   F   F   F
  0.2395653954325163  0.2835829230453388  0.5880934665965821   T   T   T
  0.3973936187601975  0.1914192344621021  0.6441525849253649   T   T   T
  0.4550615497199646  0.5562298036882962  0.5848826184738471   T   T   T
  0.9099749695616809  0.7477856465838271  0.5575888570987824   T   T   T
  0.8690367395644572  0.1057736377353891  0.4422783307318099   F   F   F
  0.5724862628102159  0.6650621482427752  0.3761317316733468   F   F   F
  0.1423360273303373  0.1568557941898590  0.3759722435750490   F   F   F
  0.3499890079698660  0.7639021190793625  0.6066946681813068   T   T   T
  0.9109055180297290  0.8427778668020025  0.4831796236075121   F   F   F
  0.0612474787255550  0.5346020012097483  0.4422534820284341   F   F   F
  0.7082484959429536  0.5528968472232449  0.4199576800001736   F   F   F
  0.0753967255111263  0.8145371002708615  0.4829941554854784   F   F   F
  0.7003742394319019  0.8252860103878916  0.4326352913293690   F   F   F
  0.7298772207448619  0.0477004212137534  0.5430454524852034   T   T   T
  0.9188975064573301  0.2991148269890843  0.6318943052652330   T   T   T
  0.7348633361429265  0.8518632968066625  0.6129663613132900   T   T   T
  0.6250314226213121  0.5251242974381682  0.4863787091564404   F   F   F
  0.5564827669730548  0.6274333357600099  0.4672494240254110   F   F   F
  0.4265549450153978  0.2423366863795072  0.5549492004805934   T   T   T
  0.9781995620681840  0.7259739289816025  0.4767956400891720   F   F   F
  0.6549095766176343  0.5933639864782233  0.6336922012090316   T   T   T
  0.3972470312216631  0.7432039745782054  0.5155691462419857   T   T   T
  0.6025995367740791  0.5153957471480979  0.3856709925442061   F   F   F
  0.7202348014303958  0.6297237065812822  0.5573703689749584   T   T   T
  0.1453071192780246  0.3613001154882209  0.6167409815196511   T   T   T
  0.0657492728795508  0.5459435003971232  0.5419278975631278   T   T   T
  0.8187002350523745  0.8829519008245655  0.5366295937613729   T   T   T
  0.8281249988959942  0.3531154381003816  0.4519033357708793   F   F   F
  0.5278896997443147  0.2945199309854510  0.5312985608721992   T   T   T
  0.7387191439116515  0.4987268654416406  0.5964145921266547   T   T   T
  0.5573434043341337  0.1701614005536314  0.3949085375269945   F   F   F
  0.8058735512249910  0.2541428658466245  0.3832928600033014   F   F   F
  0.2373556849975031  0.9509810458486996  0.5079195554207132   F   F   F
  0.6935316334040302  0.7748784545120923  0.5412961600455677   T   T   T
  0.9239241699367773  0.9473915019440126  0.5529825173207586   T   T   T
  0.5256466905887152  0.3155114149573990  0.3985559351687087   F   F   F
  0.4694134337334824  0.9851403657392591  0.5469848967263570   T   T   T
  0.8376886614976896  0.0930561483061999  0.5399560402336400   T   T   T
  0.5378127212769925  0.1141477846883205  0.4862370923690094   F   F   F
  0.3501029107497544  0.1843390278088251  0.4396363938456389   F   F   F
  0.0116697910513324  0.9601441952763778  0.3352437574830063   F   F   F
  0.4614292579344942  0.5851880196319728  0.6786781150211216   T   T   T
  0.6548746897867801  0.9231277996848917  0.3792282539811964   F   F   F
  0.0762028111815738  0.6837565527808636  0.4358810225764742   F   F   F
  0.4535024538609677  0.4001460495404856  0.5536946336315317   T   T   T
  0.7191289048610514  0.6981511467205408  0.3795829994963285   F   F   F
  0.4480690622677064  0.6979580953119012  0.6020819006750632   T   T   T
  0.7524605273401193  0.7070548707782649  0.4762954835743187   F   F   F
  0.7783282710432610  0.1197444221445640  0.6207824817621393   T   T   T
  0.9931840837814292  0.3057437687986564  0.4484029789284989   F   F   F
  0.5326152309438437  0.5064466573593762  0.5300492718345878   T   T   T
  0.8166870534501030  0.4967920298464463  0.4234422052650615   F   F   F
  0.2361067674768973  0.1421920667259647  0.6046940333293369   T   T   T
  0.2034427739508828  0.8284316114554571  0.4705336293601903   F   F   F
  0.2400550364864129  0.5567280729482073  0.5223451116563658   T   T   T
  0.0610733380821498  0.6221461719036006  0.6237207578780899   T   T   T
  0.0459835404395363  0.6000769875521286  0.3541786312221902   F   F   F
  0.8006660368002104  0.9775280534599311  0.6056701899806404   T   T   T
  0.5379003779459453  0.0254277871566018  0.4045027517534763   F   F   F
  0.6054205148060763  0.3099394997846749  0.6049911682245110   T   T   T
  0.8614555757686375  0.0018111448684479  0.3692063291070653   F   F   F
  0.0948207762165225  0.1467531307794658  0.4670823258906296   F   F   F
  0.1715149825162444  0.2022686246236654  0.5306399420964257   T   T   T
  0.6408981231186459  0.7021690156107923  0.4548155821771758   F   F   F
  0.4366972516410215  0.4074987762766398  0.3864132536704119   F   F   F
  0.5746046902163540  0.0554301079330349  0.5712225222277252   T   T   T
  0.1513472144366474  0.5911383188765669  0.3889583608347777   F   F   F
  0.2676492583114438  0.6000678267977975  0.3923062966030031   F   F   F
  0.4401679282654527  0.3199284776896292  0.4703244327181508   F   F   F
  0.2379191341244322  0.1562414247331887  0.4299011866524154   F   F   F
  0.0730528491450879  0.1478517416070361  0.5624590879959249   T   T   T
  0.8457861471295171  0.5471750355231426  0.5977007749226184   T   T   T
  0.6210888966612913  0.2776701719760766  0.4109054511829981   F   F   F
  0.6025764616084643  0.8892569612070318  0.4672234595428861   F   F   F
  0.0312948594527285  0.1930201244978633  0.3889918752683101   F   F   F
  0.6079487020400082  0.1925922488714301  0.5476532788202021   T   T   T
  0.1327091945645762  0.9360849399524014  0.4794870772378772   F   F   F
  0.0800947606466884  0.2780557526946181  0.5117349314615186   T   T   T
  0.3732284755861278  0.0997757823607213  0.5689591478518415   T   T   T
  0.0664049110365358  0.6941827244830112  0.5355585882675477   T   T   T
  0.6663978485211572  0.4131151729758784  0.4300115561107631   F   F   F
  0.7998174928705318  0.7280982144143642  0.5645933260318025   T   T   T
  0.7037480268479754  0.9549387287095499  0.4701845621740759   F   F   F
  0.5980262069792812  0.6312037960642011  0.5533377678158767   T   T   T
  0.7227497681009964  0.2914149494914327  0.4516681052539582   F   F   F
  0.9775893105567938  0.3119309085073703  0.5473713798506964   T   T   T
  0.1580280415004377  0.6270671257657786  0.5703647824703252   T   T   T
  0.6332433130452486  0.3245133746766768  0.5078007023299378   F   F   F
  0.8240957151407158  0.3991510600423766  0.6071067571188332   T   T   T
  0.9584876663240394  0.0249733397796277  0.4169530046787955   F   F   F
  0.2822769543127627  0.1934136333482954  0.5186450363000514   T   T   T
  0.2491670179877872  0.4407631845571913  0.4610556955705079   F   F   F
  0.2719426995119339  0.8461699324500568  0.5670797307350738   T   T   T
  0.2035776175532789  0.6833034648585539  0.4868887178860462   F   F   F
  0.1470329216841293  0.4738001720821359  0.4925449251270066   F   F   F
  0.2251589879203738  0.4213102404563218  0.5568991001945763   T   T   T
  0.9113264465204551  0.4504748935962581  0.4737188145108959   F   F   F
  0.8696976443528257  0.7022904059334252  0.4641535209108483   F   F   F
  0.7380296760463807  0.0905649139468778  0.4452296472671975   F   F   F
  0.2220929046952875  0.9275114852143673  0.4079468165165281   F   F   F
  0.2492596794943120  0.4005986133999354  0.6496985486656153   T   T   T
  0.6300925516895607  0.8813521576091260  0.5928056873284016   T   T   T
  0.4101327335804896  0.7867926874171260  0.4234373851432949   F   F   F
  0.9176808209654013  0.1937685890776493  0.5082451459005242   F   F   F
  0.1324565266535416  0.4412664092445837  0.3322726622007863   F   F   F
  0.1550571491199264  0.3012535506243523  0.3105604161752922   F   F   F
  0.3729146135038945  0.1286373386743023  0.3479534200993726   F   F   F
  0.0349703770033738  0.2888385597292405  0.6334243829808717   T   T   T
  0.5725987290127676  0.2545984867969011  0.3200996781806822   F   F   F
  0.2446128597844400  0.7696692834837584  0.6494635916539222   T   T   T
  0.2072837671319121  0.6461353451156029  0.3103690611938177   F   F   F
  0.2752838800138733  0.3899215944620522  0.3673758273212613   F   F   F
  0.3652602807215004  0.5953169275942329  0.3422207943191111   F   F   F
  0.2262903184563925  0.0539111194580428  0.3581188824802055   F   F   F
  0.2411128032654233  0.1938085230403175  0.3293429668079639   F   F   F
  0.5011823944061149  0.8900319172896474  0.4548416832162587   F   F   F
  0.5500773829667355  0.8246404986856677  0.5341335233218414   T   T   T
  0.5454108025108180  0.6453073033656098  0.6341657805998157   T   T   T
  0.4787863311057457  0.1176164355922936  0.5965189451851750   T   T   T
  0.2622755511618963  0.6912722861867928  0.5690070658209848   T   T   T
  0.4441844484441173  0.8417567032859801  0.5828119802740812   T   T   T
  0.7664901914677292  0.6175104579120415  0.6497352683981402   T   T   T
  0.8450588492604206  0.8313283469481247  0.6229972387892259   T   T   T
  0.6399995090926462  0.7381088312750110  0.6203976721041027   T   T   T
  0.0083592960174478  0.0310116042011254  0.6031273448174076   T   T   T
  0.2854428128282758  0.9980455664595724  0.5934260138974160   T   T   T
  0.5044336116096759  0.9677804126103493  0.6294854681407593   T   T   T
  0.4447545549633302  0.4250112765149926  0.7129739530798643   T   T   T
  0.5549685402406844  0.4848709154520276  0.7277795503944408   T   T   T
  0.0831347474928563  0.6041505961417641  0.4064130837160320   F   F   F
  0.4090069552695502  0.7613037975578398  0.5752842685586295   T   T   T
  0.8416732872022052  0.4391834105397336  0.4678389696388976   F   F   F
  0.0169989619176221  0.9882123342596074  0.3936113541928137   F   F   F
  0.0146096748804609  0.2819205690602615  0.3910814136036507   F   F   F
  0.0096161895719596  0.1124577676755698  0.5724452837546826   T   T   T
  0.6101002877185246  0.6559149744680550  0.6108786163599322   T   T   T
  0.2139326119054091  0.4738821299552110  0.5096250382166483   T   T   T
  0.9149715960422924  0.7532912327687384  0.4962545438487922   F   F   F
  0.5204880107340912  0.1081859214341918  0.4259865881079392   F   F   F
  0.4190449163843893  0.1650840836255983  0.5890974784865655   T   T   T
  0.0833619964037737  0.1369023724024956  0.4069808717903314   F   F   F
  0.7018074027695107  0.0425765498339743  0.4873230277072054   F   F   F
  0.6649688228872392  0.8957677588151824  0.4374764361266443   F   F   F
  0.6500082122438258  0.5017573524036933  0.4301508871204760   F   F   F
  0.1983701158022271  0.9102125267359398  0.4639906909803457   F   F   F
  0.2135812466816877  0.3643711513616114  0.6029900040980426   T   T   T
  0.6737495638154443  0.8121922850390603  0.5942852817916842   T   T   T
  0.2164563855738192  0.6391461913172343  0.5384747853034224   T   T   T
  0.3686985866328598  0.7328580286506607  0.4592092972079129   F   F   F
  0.7973221947886424  0.8873980362038806  0.5956348017095955   T   T   T
  0.8797787640987581  0.9100636301553449  0.5119944248520368   T   T   T
  0.5764905745880593  0.5725689437082873  0.5117973228965041   T   T   T
  0.5897563660797185  0.1127351340248711  0.5253179007512440   T   T   T
  0.8580318094462172  0.1498435276905710  0.4951759473310489   F   F   F
  0.8364173178306209  0.6039089581374123  0.6453697720763542   T   T   T
  0.1336479890302300  0.3580491989711092  0.3568722791356791   F   F   F
  0.7905647565729268  0.2776695409816270  0.4418726542293072   F   F   F
  0.3990855650505267  0.1752251392788722  0.3960031981861079   F   F   F
  0.8564267538842265  0.7495724487732154  0.5968688894841759   T   T   T
  0.2833178272304656  0.9312577315418910  0.5490352568068403   T   T   T
  0.0229842005352054  0.3281778099289738  0.5022455100715746   F   F   F
  0.5744688530728226  0.6932203763079201  0.4355643604055430   F   F   F
  0.2301504224857425  0.7503307919034725  0.4519695445397645   F   F   F
  0.5940289187772548  0.2809923838015398  0.5481661553980960   T   T   T
  0.9754681461405671  0.2696426794952826  0.6027033678008832   T   T   T
  0.8888158273040574  0.0231392942291464  0.4242001869335610   F   F   F
  0.1047471305101919  0.1932827125933519  0.5176709232702977   T   T   T
  0.0480551291337221  0.7307673887676529  0.4826301941714348   F   F   F
  0.2320037252043998  0.2036603110644334  0.5609125722705248   T   T   T
  0.5613172753313478  0.2555155650650391  0.3812261074005363   F   F   F
  0.4775692591712200  0.6229813757256517  0.6237956544019463   T   T   T
  0.2808509857708017  0.7680582205154078  0.5973922095455675   T   T   T
  0.2084102935396075  0.6411301398339120  0.3717945352858223   F   F   F
  0.7410193516390791  0.7091852652084958  0.5359880273860866   T   T   T
  0.9867532423057979  0.9879932861283441  0.5505400063698305   T   T   T
  0.7030140260719833  0.7345484484924256  0.4342603982179796   F   F   F
  0.7876232370467900  0.0581771460357580  0.5768606073208628   T   T   T
  0.4562233662493895  0.3261818903569846  0.4092878915485585   F   F   F
  0.4508685559141501  0.9310087133202534  0.5953930544382217   T   T   T
  0.5093095611484308  0.0367000433875527  0.5866413538102342   T   T   T
  0.2441566199244960  0.3681366192112563  0.4209471039025985   F   F   F
  0.6584348119560346  0.3277324061785762  0.4503479098948588   F   F   F
  0.4607205234512797  0.3137945684476720  0.5286538276984395   T   T   T
  0.3372088360897649  0.5876728370958020  0.3990830096962270   F   F   F
  0.8050294776385432  0.4771145243434916  0.5797682198707502   T   T   T
  0.0691192576290689  0.8965894510340959  0.4805055068825652   F   F   F
  0.2118170470993022  0.1421846166420480  0.3735965933534686   F   F   F
  0.0781423248729212  0.4917152903917028  0.4946876202126234   F   F   F
  0.5574796572007585  0.8500703939597472  0.4747302534090920   F   F   F
  0.7193666208613729  0.5839964058591917  0.6102494618533576   T   T   T
  0.2865515924731312  0.2078320338790931  0.4591107728955208   F   F   F
  0.0878082032277308  0.6228062324390128  0.5675911608763682   T   T   T
  0.3545123098438362  0.0140391989286566  0.5783438013204150   T   T   T
  0.4875451561208546  0.4763648711915863  0.5716647759060188   T   T   T
  0.4943325418769375  0.4881789713019984  0.6909214208911136   T   T   T

  0.00000000E+00  0.00000000E+00  0.00000000E+00
  0.00000000E+00  0.00000000E+00  0.00000000E+00
  0.00000000E+00  0.00000000E+00  0.00000000E+00
  0.00000000E+00  0.00000000E+00  0.00000000E+00
  0.00000000E+00  0.00000000E+00  0.00000000E+00
  0.00000000E+00  0.00000000E+00  0.00000000E+00
  0.00000000E+00  0.00000000E+00  0.00000000E+00
  0.00000000E+00  0.00000000E+00  0.00000000E+00
  0.00000000E+00  0.00000000E+00  0.00000000E+00
  0.00000000E+00  0.00000000E+00  0.00000000E+00
  0.00000000E+00  0.00000000E+00  0.00000000E+00
  0.00000000E+00  0.00000000E+00  0.00000000E+00
  0.00000000E+00  0.00000000E+00  0.00000000E+00
  0.00000000E+00  0.00000000E+00  0.00000000E+00
  0.00000000E+00  0.00000000E+00  0.00000000E+00
  0.00000000E+00  0.00000000E+00  0.00000000E+00
  0.00000000E+00  0.00000000E+00  0.00000000E+00
  0.00000000E+00  0.00000000E+00  0.00000000E+00
  0.00000000E+00  0.00000000E+00  0.00000000E+00
  0.00000000E+00  0.00000000E+00  0.00000000E+00
  0.00000000E+00  0.00000000E+00  0.00000000E+00
  0.00000000E+00  0.00000000E+00  0.00000000E+00
  0.00000000E+00  0.00000000E+00  0.00000000E+00
  0.00000000E+00  0.00000000E+00  0.00000000E+00
  0.00000000E+00  0.00000000E+00  0.00000000E+00
  0.00000000E+00  0.00000000E+00  0.00000000E+00
  0.00000000E+00  0.00000000E+00  0.00000000E+00
  0.00000000E+00  0.00000000E+00  0.00000000E+00
  0.00000000E+00  0.00000000E+00  0.00000000E+00
  0.00000000E+00  0.00000000E+00  0.00000000E+00
  0.00000000E+00  0.00000000E+00  0.00000000E+00
  0.00000000E+00  0.00000000E+00  0.00000000E+00
  0.00000000E+00  0.00000000E+00  0.00000000E+00
  0.00000000E+00  0.00000000E+00  0.00000000E+00
  0.00000000E+00  0.00000000E+00  0.00000000E+00
  0.00000000E+00  0.00000000E+00  0.00000000E+00
  0.00000000E+00  0.00000000E+00  0.00000000E+00
  0.00000000E+00  0.00000000E+00  0.00000000E+00
  0.00000000E+00  0.00000000E+00  0.00000000E+00
  0.00000000E+00  0.00000000E+00  0.00000000E+00
  0.00000000E+00  0.00000000E+00  0.00000000E+00
  0.00000000E+00  0.00000000E+00  0.00000000E+00
  0.00000000E+00  0.00000000E+00  0.00000000E+00
  0.00000000E+00  0.00000000E+00  0.00000000E+00
  0.00000000E+00  0.00000000E+00  0.00000000E+00
  0.00000000E+00  0.00000000E+00  0.00000000E+00
  0.00000000E+00  0.00000000E+00  0.00000000E+00
  0.00000000E+00  0.00000000E+00  0.00000000E+00
  0.00000000E+00  0.00000000E+00  0.00000000E+00
  0.00000000E+00  0.00000000E+00  0.00000000E+00
  0.00000000E+00  0.00000000E+00  0.00000000E+00
  0.00000000E+00  0.00000000E+00  0.00000000E+00
  0.00000000E+00  0.00000000E+00  0.00000000E+00
  0.00000000E+00  0.00000000E+00  0.00000000E+00
  0.00000000E+00  0.00000000E+00  0.00000000E+00
  0.00000000E+00  0.00000000E+00  0.00000000E+00
  0.00000000E+00  0.00000000E+00  0.00000000E+00
  0.00000000E+00  0.00000000E+00  0.00000000E+00
  0.00000000E+00  0.00000000E+00  0.00000000E+00
  0.00000000E+00  0.00000000E+00  0.00000000E+00
  0.00000000E+00  0.00000000E+00  0.00000000E+00
  0.00000000E+00  0.00000000E+00  0.00000000E+00
  0.00000000E+00  0.00000000E+00  0.00000000E+00
  0.00000000E+00  0.00000000E+00  0.00000000E+00
  0.00000000E+00  0.00000000E+00  0.00000000E+00
  0.00000000E+00  0.00000000E+00  0.00000000E+00
  0.00000000E+00  0.00000000E+00  0.00000000E+00
  0.00000000E+00  0.00000000E+00  0.00000000E+00
  0.00000000E+00  0.00000000E+00  0.00000000E+00
  0.00000000E+00  0.00000000E+00  0.00000000E+00
  0.00000000E+00  0.00000000E+00  0.00000000E+00
  0.00000000E+00  0.00000000E+00  0.00000000E+00
  0.00000000E+00  0.00000000E+00  0.00000000E+00
  0.00000000E+00  0.00000000E+00  0.00000000E+00
  0.00000000E+00  0.00000000E+00  0.00000000E+00
  0.00000000E+00  0.00000000E+00  0.00000000E+00
  0.00000000E+00  0.00000000E+00  0.00000000E+00
  0.00000000E+00  0.00000000E+00  0.00000000E+00
  0.00000000E+00  0.00000000E+00  0.00000000E+00
  0.00000000E+00  0.00000000E+00  0.00000000E+00
  0.00000000E+00  0.00000000E+00  0.00000000E+00
  0.00000000E+00  0.00000000E+00  0.00000000E+00
  0.00000000E+00  0.00000000E+00  0.00000000E+00
  0.00000000E+00  0.00000000E+00  0.00000000E+00
  0.00000000E+00  0.00000000E+00  0.00000000E+00
  0.00000000E+00  0.00000000E+00  0.00000000E+00
  0.00000000E+00  0.00000000E+00  0.00000000E+00
  0.00000000E+00  0.00000000E+00  0.00000000E+00
  0.00000000E+00  0.00000000E+00  0.00000000E+00
  0.00000000E+00  0.00000000E+00  0.00000000E+00
  0.00000000E+00  0.00000000E+00  0.00000000E+00
  0.00000000E+00  0.00000000E+00  0.00000000E+00
  0.00000000E+00  0.00000000E+00  0.00000000E+00
  0.00000000E+00  0.00000000E+00  0.00000000E+00
  0.00000000E+00  0.00000000E+00  0.00000000E+00
  0.00000000E+00  0.00000000E+00  0.00000000E+00
  0.00000000E+00  0.00000000E+00  0.00000000E+00
  0.00000000E+00  0.00000000E+00  0.00000000E+00
  0.00000000E+00  0.00000000E+00  0.00000000E+00
  0.00000000E+00  0.00000000E+00  0.00000000E+00
  0.00000000E+00  0.00000000E+00  0.00000000E+00
  0.00000000E+00  0.00000000E+00  0.00000000E+00
  0.00000000E+00  0.00000000E+00  0.00000000E+00
  0.00000000E+00  0.00000000E+00  0.00000000E+00
  0.00000000E+00  0.00000000E+00  0.00000000E+00
  0.00000000E+00  0.00000000E+00  0.00000000E+00
  0.00000000E+00  0.00000000E+00  0.00000000E+00
  0.00000000E+00  0.00000000E+00  0.00000000E+00
  0.00000000E+00  0.00000000E+00  0.00000000E+00
  0.00000000E+00  0.00000000E+00  0.00000000E+00
  0.00000000E+00  0.00000000E+00  0.00000000E+00
  0.00000000E+00  0.00000000E+00  0.00000000E+00
  0.00000000E+00  0.00000000E+00  0.00000000E+00
  0.00000000E+00  0.00000000E+00  0.00000000E+00
  0.00000000E+00  0.00000000E+00  0.00000000E+00
  0.00000000E+00  0.00000000E+00  0.00000000E+00
  0.00000000E+00  0.00000000E+00  0.00000000E+00
  0.00000000E+00  0.00000000E+00  0.00000000E+00
  0.00000000E+00  0.00000000E+00  0.00000000E+00
  0.00000000E+00  0.00000000E+00  0.00000000E+00
  0.00000000E+00  0.00000000E+00  0.00000000E+00
  0.00000000E+00  0.00000000E+00  0.00000000E+00
  0.00000000E+00  0.00000000E+00  0.00000000E+00
  0.00000000E+00  0.00000000E+00  0.00000000E+00
  0.00000000E+00  0.00000000E+00  0.00000000E+00
  0.00000000E+00  0.00000000E+00  0.00000000E+00
  0.00000000E+00  0.00000000E+00  0.00000000E+00
  0.00000000E+00  0.00000000E+00  0.00000000E+00
  0.00000000E+00  0.00000000E+00  0.00000000E+00
  0.00000000E+00  0.00000000E+00  0.00000000E+00
  0.00000000E+00  0.00000000E+00  0.00000000E+00
  0.00000000E+00  0.00000000E+00  0.00000000E+00
  0.00000000E+00  0.00000000E+00  0.00000000E+00
  0.00000000E+00  0.00000000E+00  0.00000000E+00
  0.00000000E+00  0.00000000E+00  0.00000000E+00
  0.00000000E+00  0.00000000E+00  0.00000000E+00
  0.00000000E+00  0.00000000E+00  0.00000000E+00
  0.00000000E+00  0.00000000E+00  0.00000000E+00
  0.00000000E+00  0.00000000E+00  0.00000000E+00
  0.00000000E+00  0.00000000E+00  0.00000000E+00
  0.00000000E+00  0.00000000E+00  0.00000000E+00
  0.00000000E+00  0.00000000E+00  0.00000000E+00
  0.00000000E+00  0.00000000E+00  0.00000000E+00
  0.00000000E+00  0.00000000E+00  0.00000000E+00
  0.00000000E+00  0.00000000E+00  0.00000000E+00
  0.00000000E+00  0.00000000E+00  0.00000000E+00
  0.00000000E+00  0.00000000E+00  0.00000000E+00
  0.00000000E+00  0.00000000E+00  0.00000000E+00
  0.00000000E+00  0.00000000E+00  0.00000000E+00
  0.00000000E+00  0.00000000E+00  0.00000000E+00
  0.00000000E+00  0.00000000E+00  0.00000000E+00
  0.00000000E+00  0.00000000E+00  0.00000000E+00
  0.00000000E+00  0.00000000E+00  0.00000000E+00
  0.00000000E+00  0.00000000E+00  0.00000000E+00
  0.00000000E+00  0.00000000E+00  0.00000000E+00
  0.00000000E+00  0.00000000E+00  0.00000000E+00
  0.00000000E+00  0.00000000E+00  0.00000000E+00
  0.00000000E+00  0.00000000E+00  0.00000000E+00
  0.00000000E+00  0.00000000E+00  0.00000000E+00
  0.00000000E+00  0.00000000E+00  0.00000000E+00
  0.00000000E+00  0.00000000E+00  0.00000000E+00
  0.00000000E+00  0.00000000E+00  0.00000000E+00
  0.00000000E+00  0.00000000E+00  0.00000000E+00
  0.00000000E+00  0.00000000E+00  0.00000000E+00
  0.00000000E+00  0.00000000E+00  0.00000000E+00
  0.00000000E+00  0.00000000E+00  0.00000000E+00
  0.00000000E+00  0.00000000E+00  0.00000000E+00
  0.00000000E+00  0.00000000E+00  0.00000000E+00
  0.00000000E+00  0.00000000E+00  0.00000000E+00
  0.00000000E+00  0.00000000E+00  0.00000000E+00
  0.00000000E+00  0.00000000E+00  0.00000000E+00
  0.00000000E+00  0.00000000E+00  0.00000000E+00
  0.00000000E+00  0.00000000E+00  0.00000000E+00
  0.00000000E+00  0.00000000E+00  0.00000000E+00
  0.00000000E+00  0.00000000E+00  0.00000000E+00
  0.00000000E+00  0.00000000E+00  0.00000000E+00
  0.00000000E+00  0.00000000E+00  0.00000000E+00
  0.00000000E+00  0.00000000E+00  0.00000000E+00
  0.00000000E+00  0.00000000E+00  0.00000000E+00
  0.00000000E+00  0.00000000E+00  0.00000000E+00
  0.00000000E+00  0.00000000E+00  0.00000000E+00
  0.00000000E+00  0.00000000E+00  0.00000000E+00
  0.00000000E+00  0.00000000E+00  0.00000000E+00
  0.00000000E+00  0.00000000E+00  0.00000000E+00
  0.00000000E+00  0.00000000E+00  0.00000000E+00
  0.00000000E+00  0.00000000E+00  0.00000000E+00
  0.00000000E+00  0.00000000E+00  0.00000000E+00
  0.00000000E+00  0.00000000E+00  0.00000000E+00
  0.00000000E+00  0.00000000E+00  0.00000000E+00
  0.00000000E+00  0.00000000E+00  0.00000000E+00
  0.00000000E+00  0.00000000E+00  0.00000000E+00
  0.00000000E+00  0.00000000E+00  0.00000000E+00
  0.00000000E+00  0.00000000E+00  0.00000000E+00
  0.00000000E+00  0.00000000E+00  0.00000000E+00
  0.00000000E+00  0.00000000E+00  0.00000000E+00
  0.00000000E+00  0.00000000E+00  0.00000000E+00
  0.00000000E+00  0.00000000E+00  0.00000000E+00
  0.00000000E+00  0.00000000E+00  0.00000000E+00
  0.00000000E+00  0.00000000E+00  0.00000000E+00
  0.00000000E+00  0.00000000E+00  0.00000000E+00
  0.00000000E+00  0.00000000E+00  0.00000000E+00