 C  H  O Si  W                          
   1.0000000000000000     
    23.4112945954000011    0.0000000000000000    0.0000000000000000
     0.0000000000000000   18.1212369513999967    0.0000000000000000
     0.0000000000000000    0.0000000000000000   26.8833665072999999
   C    H    O    Si   W 
     4    52   154    65     1
Selective dynamics
Direct
  0.5831948242441515  0.4765473967071783  0.7151501511382377   T   T   T
  0.5066028532607088  0.6212577999296659  0.7868924280301350   T   T   T
  0.5420198303113088  0.5820254413559062  0.7469967371031409   T   T   T
  0.5871672978981911  0.5247061791934395  0.7623154836264021   T   T   T
  0.7610066726354990  0.1040110305476171  0.6510256066433358   T   T   T
  0.9264276758305172  0.2786689626896504  0.3563349293400009   F   F   F
  0.7933396966457948  0.2072788970903972  0.3734565163880745   F   F   F
  0.9745391126846457  0.9436086004040121  0.3253027906056829   F   F   F
  0.6257326647317640  0.9634728498404783  0.3752311999972449   F   F   F
  0.8205383985802470  0.9950066634445136  0.3689926296547128   F   F   F
  0.7499930738025071  0.1411787556975952  0.4580381926778543   F   F   F
  0.9154032682943930  0.2494049532456093  0.5099691410985454   T   T   T
  0.5834928632346532  0.3042635460806125  0.3059271726651787   F   F   F
  0.8925282233231266  0.3349415677564083  0.6162210761823491   T   T   T
  0.5986513986385087  0.3633497881117354  0.6123340870137312   T   T   T
  0.5938215329576818  0.8710906377598459  0.5777877366635286   T   T   T
  0.0338331215365195  0.3376586946612637  0.6527100795245868   T   T   T
  0.9352705076293475  0.4195142256010627  0.4541014552468710   F   F   F
  0.7461383787264921  0.5303119922813835  0.4224881911837883   F   F   F
  0.8026290043013322  0.3860104916053670  0.6374341206686321   T   T   T
  0.5911020173621253  0.5686828265718304  0.3780347436188976   F   F   F
  0.7184337867332147  0.6459327856642645  0.3834605945055571   F   F   F
  0.8411529141822527  0.5424265959195793  0.4195961671555111   F   F   F
  0.0047645486004839  0.6037981490802551  0.3577783004107076   F   F   F
  0.8283586992797254  0.7123566732624553  0.4679422553080954   F   F   F
  0.8788212299728928  0.5984641025441524  0.7208388641842320   T   T   T
  0.5199903139142066  0.9855647614121708  0.4217030704774842   F   F   F
  0.2230945721141921  0.9801548350444023  0.3932050219465495   F   F   F
  0.2163736907012108  0.2378514578535444  0.3192303272980936   F   F   F
  0.1575010503146004  0.3298062298577378  0.2789829167401123   F   F   F
  0.3415468765222016  0.1555857053997727  0.3307727584112428   F   F   F
  0.2227158616176865  0.0457589258737627  0.3227384335196248   F   F   F
  0.5111178530565761  0.8269070453098949  0.5468534039630800   T   T   T
  0.3762452843617136  0.2413749527999829  0.6476589981940732   T   T   T
  0.2435332163470884  0.0939815113606401  0.5987372533770950   T   T   T
  0.3153809712620799  0.4871364644243030  0.4424346656312608   F   F   F
  0.4089561836824345  0.4387348585376643  0.4056905975982730   F   F   F
  0.3984995031771135  0.7931136075007075  0.3887867966224334   F   F   F
  0.2442023570718419  0.6554300786283989  0.2943268807443218   F   F   F
  0.3117413815096768  0.4184757133874442  0.3692576443915385   F   F   F
  0.4054742948373828  0.5842796533148373  0.3388198885480591   F   F   F
  0.1393576205410270  0.4879736464301843  0.3519294596467617   F   F   F
  0.5932693450847850  0.6979871282750807  0.3523979868156601   F   F   F
  0.4690068300988983  0.8614274690886390  0.4438283837725479   F   F   F
  0.1225636227732188  0.3254940908658190  0.6132479480506788   T   T   T
  0.0749870028197574  0.6629496206035104  0.6466243898462092   T   T   T
  0.2437581964115269  0.3892893531183810  0.6823142637183506   T   T   T
  0.2468744057197514  0.8161001032801668  0.6697759235895107   T   T   T
  0.5884507067920616  0.4164767287146813  0.7194899574930012   T   T   T
  0.6109792699481569  0.4969632034847218  0.6852015719569466   T   T   T
  0.5339977103289604  0.6592513667861044  0.8084846850328334   T   T   T
  0.4876233130146689  0.5813448188343939  0.8129314743028422   T   T   T
  0.4719059897290137  0.6541431666638803  0.7704050530681724   T   T   T
  0.5613003679665816  0.6225428893653773  0.7214745154578868   T   T   T
  0.6298938745439484  0.5477808500352219  0.7702580244130546   T   T   T
  0.5726613433717830  0.4939568200587662  0.7952889842570724   T   T   T
  0.3689417337474836  0.6483550972712351  0.4390000177989322   F   F   F
  0.3468156499340012  0.5040338677980998  0.4203881275781143   F   F   F
  0.8611463240628442  0.5663191681187066  0.6965231001182813   T   T   T
  0.3486321781337334  0.9592411512502268  0.5309596060957638   T   T   T
  0.0332483282700652  0.9321849584327809  0.5285763845508025   T   T   T
  0.6363554822520214  0.0788685454107210  0.4893766723794641   F   F   F
  0.0686461464337711  0.0522654213252736  0.3951107345583225   F   F   F
  0.4518995423849290  0.1295623246799735  0.4205972814427668   F   F   F
  0.8058841492391053  0.2136501795425687  0.4831666074103040   F   F   F
  0.9739259634796179  0.1818096044361008  0.5985945732980201   T   T   T
  0.2747652928370670  0.2991728708608434  0.4485122250900346   F   F   F
  0.5563541661493261  0.7750912910288292  0.4417510122690658   F   F   F
  0.3913328250573016  0.9736744114539502  0.6201117930597340   T   T   T
  0.1775172398119551  0.3499684491797339  0.4052731245300478   F   F   F
  0.8666990159527725  0.6848591493636921  0.6376152897790749   T   T   T
  0.8656960101805780  0.9671769319282575  0.4670384592975196   F   F   F
  0.3010471365425786  0.7609368347250012  0.4579252567998537   F   F   F
  0.4216109455749333  0.2612522168655929  0.3795963030273342   F   F   F
  0.8112320793720982  0.4649745645314712  0.5203038822336478   T   T   T
  0.9837488800192458  0.0725672687753865  0.5211370951409037   T   T   T
  0.5096795633933695  0.4644604751210490  0.6315856267933390   T   T   T
  0.0345364060712328  0.9199477615026765  0.4294052572495062   F   F   F
  0.9630365418976012  0.3031953077946739  0.3512576249606170   F   F   F
  0.0696266904018330  0.3361057653809567  0.3763717815531962   F   F   F
  0.2082956574839798  0.7286442940463758  0.3953601014000157   F   F   F
  0.0389012628664673  0.4191019154304030  0.4991087535393461   F   F   F
  0.2395842547896936  0.2866593637205177  0.5877810187318881   T   T   T
  0.3979743997914197  0.1960011348589716  0.6451543145590107   T   T   T
  0.4543433960935226  0.5638452245950824  0.5803554708673025   T   T   T
  0.9102054332077266  0.7491270764384350  0.5575261148187629   T   T   T
  0.8691272712828919  0.1080433422095268  0.4422783307318099   F   F   F
  0.5725767945286506  0.6673318527169130  0.3761317316733468   F   F   F
  0.1424265590487721  0.1591254986639967  0.3759722435750490   F   F   F
  0.3503914325964546  0.7660126088596388  0.6065650919206750   T   T   T
  0.9109960497481637  0.8450475712761403  0.4831796236075121   F   F   F
  0.0613380104439898  0.5368717056838861  0.4422534820284341   F   F   F
  0.7083390276613883  0.5551665516973827  0.4199576800001736   F   F   F
  0.0754872572295611  0.8168068047449992  0.4829941554854784   F   F   F
  0.7004647711503367  0.8275557148620294  0.4326352913293690   F   F   F
  0.7302469534187553  0.0491567471985051  0.5429767484908733   T   T   T
  0.9197372542122054  0.3020941426883951  0.6324801499986592   T   T   T
  0.7354039353857281  0.8528387847469664  0.6128814294536489   T   T   T
  0.6251219543397468  0.5273940019123060  0.4863787091564404   F   F   F
  0.5565732986914895  0.6297030402341477  0.4672494240254110   F   F   F
  0.4257784805805709  0.2479125546962318  0.5556731856744765   T   T   T
  0.9782900937866188  0.7282436334557403  0.4767956400891720   F   F   F
  0.6545177345984178  0.5948006326587140  0.6330028894196035   T   T   T
  0.3965906997342855  0.7473276753361048  0.5151450053308319   T   T   T
  0.6026900684925138  0.5176654516222357  0.3856709925442061   F   F   F
  0.7209224313355190  0.6304895016488400  0.5570020876922539   T   T   T
  0.1481325888145511  0.3659089666349878  0.6215813162058391   T   T   T
  0.0661748532574499  0.5482799003899170  0.5420941476280574   T   T   T
  0.8188185097876410  0.8844742064595875  0.5364579068414308   T   T   T
  0.8282155306144290  0.3553851425745194  0.4519033357708793   F   F   F
  0.5279440275682814  0.2964008340732411  0.5312524073868456   T   T   T
  0.7373688352778388  0.4989096152899661  0.5959375137233295   T   T   T
  0.5574339360525684  0.1724311050277691  0.3949085375269945   F   F   F
  0.8059640829434258  0.2564125703207623  0.3832928600033014   F   F   F
  0.2374462167159379  0.9532507503228373  0.5079195554207132   F   F   F
  0.6930068239443866  0.7756808942740200  0.5416849064926715   T   T   T
  0.9236018119021574  0.9498966056000584  0.5529306061438132   T   T   T
  0.5257372223071499  0.3177811194315368  0.3985559351687087   F   F   F
  0.4676324649351460  0.9916199876589106  0.5464898054320094   T   T   T
  0.8377777073607001  0.0947871916377290  0.5397512425137380   T   T   T
  0.5379032529954273  0.1164174891624583  0.4862370923690094   F   F   F
  0.3501934424681892  0.1866087322829628  0.4396363938456389   F   F   F
  0.0117603227697671  0.9624138997505156  0.3352437574830063   F   F   F
  0.4548947869621017  0.5937763994477367  0.6740905081055339   T   T   T
  0.6549652215052149  0.9253975041590294  0.3792282539811964   F   F   F
  0.0762933429000086  0.6860262572550013  0.4358810225764742   F   F   F
  0.4553923452019468  0.4047124640472519  0.5535031124886732   T   T   T
  0.7192194365794862  0.7004208511946786  0.3795829994963285   F   F   F
  0.4511055889243332  0.7063150665281318  0.5993484179927191   T   T   T
  0.7525510590585540  0.7093245752524027  0.4762954835743187   F   F   F
  0.7792024760810452  0.1210486691755333  0.6207754972360742   T   T   T
  0.9932746154998640  0.3080134732727942  0.4484029789284989   F   F   F
  0.5368137046953514  0.5094236914378450  0.5352383889036750   T   T   T
  0.8167775851685377  0.4990617343205841  0.4234422052650615   F   F   F
  0.2362717604644651  0.1460984089986381  0.6055344684609053   T   T   T
  0.2035333056693176  0.8307013159295948  0.4705336293601903   F   F   F
  0.2398629673806088  0.5591524234648686  0.5227133685491744   T   T   T
  0.0612352326561864  0.6253438245989814  0.6239843860627455   T   T   T
  0.0460740721579711  0.6023466920262663  0.3541786312221902   F   F   F
  0.8008335357977274  0.9786649109155048  0.6055556623303624   T   T   T
  0.5379909096643800  0.0276974916307395  0.4045027517534763   F   F   F
  0.6063551034328974  0.3119516008995192  0.6048105480656634   T   T   T
  0.8615461074870723  0.0040808493425857  0.3692063291070653   F   F   F
  0.0949113079349573  0.1490228352536036  0.4670823258906296   F   F   F
  0.1715456425476615  0.2044338355648744  0.5309397422433210   T   T   T
  0.6409886548370807  0.7044387200849300  0.4548155821771758   F   F   F
  0.4367877833594562  0.4097684807507775  0.3864132536704119   F   F   F
  0.5739404400058251  0.0584171539481589  0.5711731015711405   T   T   T
  0.1514377461550822  0.5934080233507046  0.3889583608347777   F   F   F
  0.2677397900298786  0.6023375312719352  0.3923062966030031   F   F   F
  0.4402584599838875  0.3221981821637669  0.4703244327181508   F   F   F
  0.2380096658428670  0.1585111292073265  0.4299011866524154   F   F   F
  0.0732880910669788  0.1492695541901401  0.5624540039625339   T   T   T
  0.8450356664585149  0.5453912697918502  0.5993707755622798   T   T   T
  0.6211794283797261  0.2799398764502143  0.4109054511829981   F   F   F
  0.6026669933268991  0.8915266656811696  0.4672234595428861   F   F   F
  0.0313853911711632  0.1952898289720011  0.3889918752683101   F   F   F
  0.6081136736447580  0.1948710281196624  0.5476747475660853   T   T   T
  0.1327997262830110  0.9383546444265392  0.4794870772378772   F   F   F
  0.0799817281663216  0.2801070001278738  0.5121447622117076   T   T   T
  0.3722593181821786  0.1056851998285946  0.5691938222166519   T   T   T
  0.0662673445442810  0.6964332380143983  0.5356219225068112   T   T   T
  0.6664883802395920  0.4153848774500162  0.4300115561107631   F   F   F
  0.7997396468157645  0.7298164542659795  0.5641176464102660   T   T   T
  0.7038385585664102  0.9572084331836876  0.4701845621740759   F   F   F
  0.6004872817666753  0.6366405215327496  0.5519712112614189   T   T   T
  0.7228402998194312  0.2936846539655704  0.4516681052539582   F   F   F
  0.9773879702912772  0.3144487150116242  0.5472196754718321   T   T   T
  0.1581717783862188  0.6298739091329522  0.5706766369082711   T   T   T
  0.6333338447636834  0.3267830791508146  0.5078007023299378   F   F   F
  0.8213556409197564  0.3973277724512590  0.6061320495399523   T   T   T
  0.9585781980424741  0.0272430442537654  0.4169530046787955   F   F   F
  0.2821165276101318  0.1954105948368097  0.5186755396870689   T   T   T
  0.2492575497062219  0.4430328890313291  0.4610556955705079   F   F   F
  0.2722349596051476  0.8503237247888750  0.5688831459872333   T   T   T
  0.2036681492717136  0.6855731693326916  0.4868887178860462   F   F   F
  0.1471234534025641  0.4760698765562736  0.4925449251270066   F   F   F
  0.2248267454961570  0.4233227403583281  0.5567917197571046   T   T   T
  0.9114169782388899  0.4527445980703959  0.4737188145108959   F   F   F
  0.8697881760712605  0.7045601104075629  0.4641535209108483   F   F   F
  0.7381202077648155  0.0928346184210156  0.4452296472671975   F   F   F
  0.2221834364137223  0.9297811896885051  0.4079468165165281   F   F   F
  0.2545867960270574  0.4027271032958250  0.6487264350052180   T   T   T
  0.6308641276441190  0.8834392540337408  0.5931925007727457   T   T   T
  0.4102232652989244  0.7890623918912638  0.4234373851432949   F   F   F
  0.9177713526838360  0.1960382935517870  0.5082451459005242   F   F   F
  0.1325470583719763  0.4435361137187215  0.3322726622007863   F   F   F
  0.1551476808383612  0.3035232550984901  0.3105604161752922   F   F   F
  0.3730051452223293  0.1309070431484400  0.3479534200993726   F   F   F
  0.0354428818645260  0.2927862507866836  0.6330358069103881   T   T   T
  0.5726892607312024  0.2568681912710389  0.3200996781806822   F   F   F
  0.2454247573093136  0.7711678907868769  0.6501907227106928   T   T   T
  0.2073742988503469  0.6484050495897407  0.3103690611938177   F   F   F
  0.2753744117323080  0.3921912989361900  0.3673758273212613   F   F   F
  0.3653508124399352  0.5975866320683707  0.3422207943191111   F   F   F
  0.2263808501748272  0.0561808239321806  0.3581188824802055   F   F   F
  0.2412033349838580  0.1960782275144553  0.3293429668079639   F   F   F
  0.5012729261245497  0.8923016217637851  0.4548416832162587   F   F   F
  0.5500466633056177  0.8278927973487973  0.5343745991409959   T   T   T
  0.5451408227743877  0.6460877166148474  0.6322067443750915   T   T   T
  0.4784593893468654  0.1229745169969602  0.5963518144978102   T   T   T
  0.2619847361639149  0.6949914538938134  0.5687081879675364   T   T   T
  0.4421033122118156  0.8485077707832682  0.5812506183803179   T   T   T
  0.7658350681982740  0.6171061167051467  0.6497591062900667   T   T   T
  0.8452418441323200  0.8321293973012789  0.6228039279647604   T   T   T
  0.6402518729589324  0.7401574211848156  0.6214293969262252   T   T   T
  0.0079648375265234  0.0332145150116688  0.6029624909710147   T   T   T
  0.2839664643277861  0.0029114172366750  0.5937441123290814   T   T   T
  0.5029153219581773  0.9724526831064261  0.6288265763884811   T   T   T
  0.4597409855858688  0.4558829557620955  0.7419086963937725   T   T   T
  0.0832252792112911  0.6064203006159019  0.4064130837160320   F   F   F
  0.4088193265241500  0.7669865426823526  0.5742560635186150   T   T   T
  0.8417638189206400  0.4414531150138714  0.4678389696388976   F   F   F
  0.0170894936360568  0.9904820387337452  0.3936113541928137   F   F   F
  0.0147002065988957  0.2841902735343993  0.3910814136036507   F   F   F
  0.0095585030005633  0.1147639514667384  0.5724083457793314   T   T   T
  0.6102202657996092  0.6584239985224301  0.6101347605221860   T   T   T
  0.2140212644054041  0.4762123502014520  0.5096550413497712   T   T   T
  0.9150621277607272  0.7555609372428762  0.4962545438487922   F   F   F
  0.5205785424525260  0.1104556259083296  0.4259865881079392   F   F   F
  0.4186111808359504  0.1704267329420252  0.5894807615954993   T   T   T
  0.0834525281222085  0.1391720768766334  0.4069808717903314   F   F   F
  0.7018979344879455  0.0448462543081121  0.4873230277072054   F   F   F
  0.6650593546056740  0.8980374632893202  0.4374764361266443   F   F   F
  0.6500987439622605  0.5040270568778311  0.4301508871204760   F   F   F
  0.1984606475206618  0.9124822312100775  0.4639906909803457   F   F   F
  0.2152505893178841  0.3676065544313423  0.6038665934809299   T   T   T
  0.6739606878113912  0.8137317322429068  0.5946493231444759   T   T   T
  0.2165046552622971  0.6418779219619080  0.5386096086494301   T   T   T
  0.3687891183512946  0.7351277331247985  0.4592092972079129   F   F   F
  0.7976526081786485  0.8885420468612458  0.5955003143188203   T   T   T
  0.8797258302823511  0.9122368087075552  0.5119260429187351   T   T   T
  0.5774065261321847  0.5756155319487506  0.5124201953452476   T   T   T
  0.5898080286589176  0.1151794826378157  0.5252570799429035   T   T   T
  0.8581223411646519  0.1521132321647087  0.4951759473310489   F   F   F
  0.8358119570707156  0.6042781715740816  0.6458792120112195   T   T   T
  0.1337385207486648  0.3603189034452470  0.3568722791356791   F   F   F
  0.7906552882913616  0.2799392454557648  0.4418726542293072   F   F   F
  0.3991760967689615  0.1774948437530099  0.3960031981861079   F   F   F
  0.8563868691997314  0.7504478946463250  0.5965138767134462   T   T   T
  0.2827740563832423  0.9352398887262545  0.5498500137902219   T   T   T
  0.0230747322536402  0.3304475144031116  0.5022455100715746   F   F   F
  0.5745593847912573  0.6954900807820579  0.4355643604055430   F   F   F
  0.2302409542041772  0.7526004963776103  0.4519695445397645   F   F   F
  0.5940521100448731  0.2832410196498903  0.5480094799414476   T   T   T
  0.9758423056130792  0.2725421376618905  0.6026326776625995   T   T   T
  0.8889063590224922  0.0254089987032842  0.4242001869335610   F   F   F
  0.1048274309711877  0.1953062317937935  0.5178262116478207   T   T   T
  0.0481456608521569  0.7330370932417907  0.4826301941714348   F   F   F
  0.2320718770344243  0.2064971036948316  0.5610767972455784   T   T   T
  0.5614078070497825  0.2577852695391769  0.3812261074005363   F   F   F
  0.4764080664464233  0.6286780733669999  0.6202845720147777   T   T   T
  0.2811646595780828  0.7709483201454468  0.5978458777729987   T   T   T
  0.2085008252580423  0.6433998443080498  0.3717945352858223   F   F   F
  0.7408438355411542  0.7105410536012741  0.5358862790581791   T   T   T
  0.9864147102663893  0.9904380429707719  0.5503187414021676   T   T   T
  0.7031045577904180  0.7368181529665634  0.4342603982179796   F   F   F
  0.7880105169873206  0.0594725698300985  0.5767251232186367   T   T   T
  0.4563138979678243  0.3284515948311224  0.4092878915485585   F   F   F
  0.4489774261204882  0.9371506721289909  0.5946938382432225   T   T   T
  0.5082528655177523  0.0417020519894954  0.5863219135790952   T   T   T
  0.2442471516429308  0.3704063236853941  0.4209471039025985   F   F   F
  0.6585253436744694  0.3300021106527140  0.4503479098948588   F   F   F
  0.4610957173856461  0.3183188760215769  0.5288802950822337   T   T   T
  0.3372993678081997  0.5899425415699397  0.3990830096962270   F   F   F
  0.8038703479882685  0.4767808690427506  0.5799073440051185   T   T   T
  0.0692097893475037  0.8988591555082337  0.4805055068825652   F   F   F
  0.2119075788177369  0.1444543211161857  0.3735965933534686   F   F   F
  0.0782328565913559  0.4939849948658406  0.4946876202126234   F   F   F
  0.5575701889191933  0.8523400984338849  0.4747302534090920   F   F   F
  0.7190200446095756  0.5846601656021078  0.6096759611449603   T   T   T
  0.2866421241915660  0.2101017383532309  0.4591107728955208   F   F   F
  0.0879708813682939  0.6253071858572691  0.5677668004006662   T   T   T
  0.3529840106958712  0.0201397425041915  0.5787243750561964   T   T   T
  0.4872985869964921  0.4817347284246042  0.5743284044926819   T   T   T
  0.4957512461152660  0.5070743397433892  0.6982083539299712   T   T   T

  0.00000000E+00  0.00000000E+00  0.00000000E+00
  0.00000000E+00  0.00000000E+00  0.00000000E+00
  0.00000000E+00  0.00000000E+00  0.00000000E+00
  0.00000000E+00  0.00000000E+00  0.00000000E+00
  0.00000000E+00  0.00000000E+00  0.00000000E+00
  0.00000000E+00  0.00000000E+00  0.00000000E+00
  0.00000000E+00  0.00000000E+00  0.00000000E+00
  0.00000000E+00  0.00000000E+00  0.00000000E+00
  0.00000000E+00  0.00000000E+00  0.00000000E+00
  0.00000000E+00  0.00000000E+00  0.00000000E+00
  0.00000000E+00  0.00000000E+00  0.00000000E+00
  0.00000000E+00  0.00000000E+00  0.00000000E+00
  0.00000000E+00  0.00000000E+00  0.00000000E+00
  0.00000000E+00  0.00000000E+00  0.00000000E+00
  0.00000000E+00  0.00000000E+00  0.00000000E+00
  0.00000000E+00  0.00000000E+00  0.00000000E+00
  0.00000000E+00  0.00000000E+00  0.00000000E+00
  0.00000000E+00  0.00000000E+00  0.00000000E+00
  0.00000000E+00  0.00000000E+00  0.00000000E+00
  0.00000000E+00  0.00000000E+00  0.00000000E+00
  0.00000000E+00  0.00000000E+00  0.00000000E+00
  0.00000000E+00  0.00000000E+00  0.00000000E+00
  0.00000000E+00  0.00000000E+00  0.00000000E+00
  0.00000000E+00  0.00000000E+00  0.00000000E+00
  0.00000000E+00  0.00000000E+00  0.00000000E+00
  0.00000000E+00  0.00000000E+00  0.00000000E+00
  0.00000000E+00  0.00000000E+00  0.00000000E+00
  0.00000000E+00  0.00000000E+00  0.00000000E+00
  0.00000000E+00  0.00000000E+00  0.00000000E+00
  0.00000000E+00  0.00000000E+00  0.00000000E+00
  0.00000000E+00  0.00000000E+00  0.00000000E+00
  0.00000000E+00  0.00000000E+00  0.00000000E+00
  0.00000000E+00  0.00000000E+00  0.00000000E+00
  0.00000000E+00  0.00000000E+00  0.00000000E+00
  0.00000000E+00  0.00000000E+00  0.00000000E+00
  0.00000000E+00  0.00000000E+00  0.00000000E+00
  0.00000000E+00  0.00000000E+00  0.00000000E+00
  0.00000000E+00  0.00000000E+00  0.00000000E+00
  0.00000000E+00  0.00000000E+00  0.00000000E+00
  0.00000000E+00  0.00000000E+00  0.00000000E+00
  0.00000000E+00  0.00000000E+00  0.00000000E+00
  0.00000000E+00  0.00000000E+00  0.00000000E+00
  0.00000000E+00  0.00000000E+00  0.00000000E+00
  0.00000000E+00  0.00000000E+00  0.00000000E+00
  0.00000000E+00  0.00000000E+00  0.00000000E+00
  0.00000000E+00  0.00000000E+00  0.00000000E+00
  0.00000000E+00  0.00000000E+00  0.00000000E+00
  0.00000000E+00  0.00000000E+00  0.00000000E+00
  0.00000000E+00  0.00000000E+00  0.00000000E+00
  0.00000000E+00  0.00000000E+00  0.00000000E+00
  0.00000000E+00  0.00000000E+00  0.00000000E+00
  0.00000000E+00  0.00000000E+00  0.00000000E+00
  0.00000000E+00  0.00000000E+00  0.00000000E+00
  0.00000000E+00  0.00000000E+00  0.00000000E+00
  0.00000000E+00  0.00000000E+00  0.00000000E+00
  0.00000000E+00  0.00000000E+00  0.00000000E+00
  0.00000000E+00  0.00000000E+00  0.00000000E+00
  0.00000000E+00  0.00000000E+00  0.00000000E+00
  0.00000000E+00  0.00000000E+00  0.00000000E+00
  0.00000000E+00  0.00000000E+00  0.00000000E+00
  0.00000000E+00  0.00000000E+00  0.00000000E+00
  0.00000000E+00  0.00000000E+00  0.00000000E+00
  0.00000000E+00  0.00000000E+00  0.00000000E+00
  0.00000000E+00  0.00000000E+00  0.00000000E+00
  0.00000000E+00  0.00000000E+00  0.00000000E+00
  0.00000000E+00  0.00000000E+00  0.00000000E+00
  0.00000000E+00  0.00000000E+00  0.00000000E+00
  0.00000000E+00  0.00000000E+00  0.00000000E+00
  0.00000000E+00  0.00000000E+00  0.00000000E+00
  0.00000000E+00  0.00000000E+00  0.00000000E+00
  0.00000000E+00  0.00000000E+00  0.00000000E+00
  0.00000000E+00  0.00000000E+00  0.00000000E+00
  0.00000000E+00  0.00000000E+00  0.00000000E+00
  0.00000000E+00  0.00000000E+00  0.00000000E+00
  0.00000000E+00  0.00000000E+00  0.00000000E+00
  0.00000000E+00  0.00000000E+00  0.00000000E+00
  0.00000000E+00  0.00000000E+00  0.00000000E+00
  0.00000000E+00  0.00000000E+00  0.00000000E+00
  0.00000000E+00  0.00000000E+00  0.00000000E+00
  0.00000000E+00  0.00000000E+00  0.00000000E+00
  0.00000000E+00  0.00000000E+00  0.00000000E+00
  0.00000000E+00  0.00000000E+00  0.00000000E+00
  0.00000000E+00  0.00000000E+00  0.00000000E+00
  0.00000000E+00  0.00000000E+00  0.00000000E+00
  0.00000000E+00  0.00000000E+00  0.00000000E+00
  0.00000000E+00  0.00000000E+00  0.00000000E+00
  0.00000000E+00  0.00000000E+00  0.00000000E+00
  0.00000000E+00  0.00000000E+00  0.00000000E+00
  0.00000000E+00  0.00000000E+00  0.00000000E+00
  0.00000000E+00  0.00000000E+00  0.00000000E+00
  0.00000000E+00  0.00000000E+00  0.00000000E+00
  0.00000000E+00  0.00000000E+00  0.00000000E+00
  0.00000000E+00  0.00000000E+00  0.00000000E+00
  0.00000000E+00  0.00000000E+00  0.00000000E+00
  0.00000000E+00  0.00000000E+00  0.00000000E+00
  0.00000000E+00  0.00000000E+00  0.00000000E+00
  0.00000000E+00  0.00000000E+00  0.00000000E+00
  0.00000000E+00  0.00000000E+00  0.00000000E+00
  0.00000000E+00  0.00000000E+00  0.00000000E+00
  0.00000000E+00  0.00000000E+00  0.00000000E+00
  0.00000000E+00  0.00000000E+00  0.00000000E+00
  0.00000000E+00  0.00000000E+00  0.00000000E+00
  0.00000000E+00  0.00000000E+00  0.00000000E+00
  0.00000000E+00  0.00000000E+00  0.00000000E+00
  0.00000000E+00  0.00000000E+00  0.00000000E+00
  0.00000000E+00  0.00000000E+00  0.00000000E+00
  0.00000000E+00  0.00000000E+00  0.00000000E+00
  0.00000000E+00  0.00000000E+00  0.00000000E+00
  0.00000000E+00  0.00000000E+00  0.00000000E+00
  0.00000000E+00  0.00000000E+00  0.00000000E+00
  0.00000000E+00  0.00000000E+00  0.00000000E+00
  0.00000000E+00  0.00000000E+00  0.00000000E+00
  0.00000000E+00  0.00000000E+00  0.00000000E+00
  0.00000000E+00  0.00000000E+00  0.00000000E+00
  0.00000000E+00  0.00000000E+00  0.00000000E+00
  0.00000000E+00  0.00000000E+00  0.00000000E+00
  0.00000000E+00  0.00000000E+00  0.00000000E+00
  0.00000000E+00  0.00000000E+00  0.00000000E+00
  0.00000000E+00  0.00000000E+00  0.00000000E+00
  0.00000000E+00  0.00000000E+00  0.00000000E+00
  0.00000000E+00  0.00000000E+00  0.00000000E+00
  0.00000000E+00  0.00000000E+00  0.00000000E+00
  0.00000000E+00  0.00000000E+00  0.00000000E+00
  0.00000000E+00  0.00000000E+00  0.00000000E+00
  0.00000000E+00  0.00000000E+00  0.00000000E+00
  0.00000000E+00  0.00000000E+00  0.00000000E+00
  0.00000000E+00  0.00000000E+00  0.00000000E+00
  0.00000000E+00  0.00000000E+00  0.00000000E+00
  0.00000000E+00  0.00000000E+00  0.00000000E+00
  0.00000000E+00  0.00000000E+00  0.00000000E+00
  0.00000000E+00  0.00000000E+00  0.00000000E+00
  0.00000000E+00  0.00000000E+00  0.00000000E+00
  0.00000000E+00  0.00000000E+00  0.00000000E+00
  0.00000000E+00  0.00000000E+00  0.00000000E+00
  0.00000000E+00  0.00000000E+00  0.00000000E+00
  0.00000000E+00  0.00000000E+00  0.00000000E+00
  0.00000000E+00  0.00000000E+00  0.00000000E+00
  0.00000000E+00  0.00000000E+00  0.00000000E+00
  0.00000000E+00  0.00000000E+00  0.00000000E+00
  0.00000000E+00  0.00000000E+00  0.00000000E+00
  0.00000000E+00  0.00000000E+00  0.00000000E+00
  0.00000000E+00  0.00000000E+00  0.00000000E+00
  0.00000000E+00  0.00000000E+00  0.00000000E+00
  0.00000000E+00  0.00000000E+00  0.00000000E+00
  0.00000000E+00  0.00000000E+00  0.00000000E+00
  0.00000000E+00  0.00000000E+00  0.00000000E+00
  0.00000000E+00  0.00000000E+00  0.00000000E+00
  0.00000000E+00  0.00000000E+00  0.00000000E+00
  0.00000000E+00  0.00000000E+00  0.00000000E+00
  0.00000000E+00  0.00000000E+00  0.00000000E+00
  0.00000000E+00  0.00000000E+00  0.00000000E+00
  0.00000000E+00  0.00000000E+00  0.00000000E+00
  0.00000000E+00  0.00000000E+00  0.00000000E+00
  0.00000000E+00  0.00000000E+00  0.00000000E+00
  0.00000000E+00  0.00000000E+00  0.00000000E+00
  0.00000000E+00  0.00000000E+00  0.00000000E+00
  0.00000000E+00  0.00000000E+00  0.00000000E+00
  0.00000000E+00  0.00000000E+00  0.00000000E+00
  0.00000000E+00  0.00000000E+00  0.00000000E+00
  0.00000000E+00  0.00000000E+00  0.00000000E+00
  0.00000000E+00  0.00000000E+00  0.00000000E+00
  0.00000000E+00  0.00000000E+00  0.00000000E+00
  0.00000000E+00  0.00000000E+00  0.00000000E+00
  0.00000000E+00  0.00000000E+00  0.00000000E+00
  0.00000000E+00  0.00000000E+00  0.00000000E+00
  0.00000000E+00  0.00000000E+00  0.00000000E+00
  0.00000000E+00  0.00000000E+00  0.00000000E+00
  0.00000000E+00  0.00000000E+00  0.00000000E+00
  0.00000000E+00  0.00000000E+00  0.00000000E+00
  0.00000000E+00  0.00000000E+00  0.00000000E+00
  0.00000000E+00  0.00000000E+00  0.00000000E+00
  0.00000000E+00  0.00000000E+00  0.00000000E+00
  0.00000000E+00  0.00000000E+00  0.00000000E+00
  0.00000000E+00  0.00000000E+00  0.00000000E+00
  0.00000000E+00  0.00000000E+00  0.00000000E+00
  0.00000000E+00  0.00000000E+00  0.00000000E+00
  0.00000000E+00  0.00000000E+00  0.00000000E+00
  0.00000000E+00  0.00000000E+00  0.00000000E+00
  0.00000000E+00  0.00000000E+00  0.00000000E+00
  0.00000000E+00  0.00000000E+00  0.00000000E+00
  0.00000000E+00  0.00000000E+00  0.00000000E+00
  0.00000000E+00  0.00000000E+00  0.00000000E+00
  0.00000000E+00  0.00000000E+00  0.00000000E+00
  0.00000000E+00  0.00000000E+00  0.00000000E+00
  0.00000000E+00  0.00000000E+00  0.00000000E+00
  0.00000000E+00  0.00000000E+00  0.00000000E+00
  0.00000000E+00  0.00000000E+00  0.00000000E+00
  0.00000000E+00  0.00000000E+00  0.00000000E+00
  0.00000000E+00  0.00000000E+00  0.00000000E+00
  0.00000000E+00  0.00000000E+00  0.00000000E+00
  0.00000000E+00  0.00000000E+00  0.00000000E+00
  0.00000000E+00  0.00000000E+00  0.00000000E+00
  0.00000000E+00  0.00000000E+00  0.00000000E+00