 C  H  O Si  W                          
   1.0000000000000000     
    23.4112945954000011    0.0000000000000000    0.0000000000000000
     0.0000000000000000   18.1212369514000002    0.0000000000000000
     0.0000000000000000    0.0000000000000000   26.8833665072999999
   C    H    O    Si   W 
     2    48   154    65     1
Selective dynamics
Direct
  0.5514900093420536  0.5337511253322802  0.7891956781583502   T   T   T
  0.5666317421171740  0.5156994852117620  0.7395963492355548   T   T   T
  0.7605829397980841  0.1037383507166467  0.6510292693000608   F   F   F
  0.9264276758305172  0.2786689626896504  0.3563349293400009   F   F   F
  0.7933396966457948  0.2072788970903972  0.3734565163880745   F   F   F
  0.9745391126846457  0.9436086004040121  0.3253027906056829   F   F   F
  0.6257326647317640  0.9634728498404783  0.3752311999972449   F   F   F
  0.8205383985802470  0.9950066634445136  0.3689926296547128   F   F   F
  0.7499930738025071  0.1411787556975952  0.4580381926778543   F   F   F
  0.9154488542933592  0.2494635010620598  0.5090870847454738   F   F   F
  0.5834928632346532  0.3042635460806125  0.3059271726651787   F   F   F
  0.8914407638444004  0.3346483882360403  0.6159958922282556   F   F   F
  0.5876253179862871  0.3585262948604964  0.6149127563026795   F   F   F
  0.5934104882784652  0.8708888452934787  0.5779969991031706   F   F   F
  0.0337658791151370  0.3377254775046410  0.6521827621591072   F   F   F
  0.9352705076293475  0.4195142256010627  0.4541014552468710   F   F   F
  0.7461383787264921  0.5303119922813835  0.4224881911837883   F   F   F
  0.7981232152622653  0.3823917498815987  0.6349262336125179   F   F   F
  0.5911020173621253  0.5686828265718304  0.3780347436188976   F   F   F
  0.7184337867332147  0.6459327856642645  0.3834605945055571   F   F   F
  0.8411529141822527  0.5424265959195793  0.4195961671555111   F   F   F
  0.0047645486004839  0.6037981490802551  0.3577783004107076   F   F   F
  0.8283586992797254  0.7123566732624553  0.4679422553080954   F   F   F
  0.8761144279809727  0.5986977626467862  0.7217921030233967   F   F   F
  0.5199903139142066  0.9855647614121708  0.4217030704774842   F   F   F
  0.2230945721141921  0.9801548350444023  0.3932050219465495   F   F   F
  0.2163736907012108  0.2378514578535444  0.3192303272980936   F   F   F
  0.1575010503146004  0.3298062298577378  0.2789829167401123   F   F   F
  0.3415468765222016  0.1555857053997727  0.3307727584112428   F   F   F
  0.2227158616176865  0.0457589258737627  0.3227384335196248   F   F   F
  0.5111072421659841  0.8259390320198108  0.5467159767658529   F   F   F
  0.3726406714120216  0.2364675558093126  0.6475618753306165   F   F   F
  0.2435679376691340  0.0931198041129377  0.5985033199172349   F   F   F
  0.3153809712620799  0.4871364644243030  0.4424346656312608   F   F   F
  0.4089561836824345  0.4387348585376643  0.4056905975982730   F   F   F
  0.3984995031771135  0.7931136075007075  0.3887867966224334   F   F   F
  0.2442023570718419  0.6554300786283989  0.2943268807443218   F   F   F
  0.3117413815096768  0.4184757133874442  0.3692576443915385   F   F   F
  0.4054742948373828  0.5842796533148373  0.3388198885480591   F   F   F
  0.1393576205410270  0.4879736464301843  0.3519294596467617   F   F   F
  0.5932693450847850  0.6979871282750807  0.3523979868156601   F   F   F
  0.4690068300988983  0.8614274690886390  0.4438283837725479   F   F   F
  0.1216359279018917  0.3230332438053409  0.6116987700558667   F   F   F
  0.0719940784764077  0.6655723750207443  0.6455405093786410   F   F   F
  0.2397370795707303  0.3873620151948671  0.6828983789808518   F   F   F
  0.2467127099225834  0.8159352945941620  0.6692827958831060   F   F   F
  0.5256091513385570  0.4968796168276697  0.8118573632450605   T   T   T
  0.5703129289351949  0.5823306919560594  0.8065674083976830   T   T   T
  0.5732332535371469  0.4537073842336810  0.7259309108358423   T   T   T
  0.5985100903147327  0.5507133021168187  0.7207380909321301   T   T   T
  0.3689417337474836  0.6483550972712351  0.4390000177989322   F   F   F
  0.3468156499340012  0.5040338677980998  0.4203881275781143   F   F   F
  0.8607015797243776  0.5659156389544862  0.6966683289264424   F   F   F
  0.3489632247301770  0.9590544221063126  0.5300231339595811   F   F   F
  0.0333985349319903  0.9322333944905168  0.5286356601208482   F   F   F
  0.6363554822520214  0.0788685454107210  0.4893766723794641   F   F   F
  0.0686461464337711  0.0522654213252736  0.3951107345583225   F   F   F
  0.4518995423849290  0.1295623246799735  0.4205972814427668   F   F   F
  0.8058841492391053  0.2136501795425687  0.4831666074103040   F   F   F
  0.9732622458980558  0.1815354241214564  0.5988363134945658   F   F   F
  0.2747652928370670  0.2991728708608434  0.4485122250900346   F   F   F
  0.5563541661493261  0.7750912910288292  0.4417510122690658   F   F   F
  0.3918867063517055  0.9734750124239184  0.6191880669209340   F   F   F
  0.1775172398119551  0.3499684491797339  0.4052731245300478   F   F   F
  0.8664795561757757  0.6840534946138348  0.6372950755201430   F   F   F
  0.8656960101805780  0.9671769319282575  0.4670384592975196   F   F   F
  0.3010471365425786  0.7609368347250012  0.4579252567998537   F   F   F
  0.4216109455749333  0.2612522168655929  0.3795963030273342   F   F   F
  0.8110580131376608  0.4654314736476337  0.5201169125660030   F   F   F
  0.9836510045006222  0.0726848180294013  0.5212282016289649   F   F   F
  0.5135797102316104  0.4650571928286737  0.6272811967172771   F   F   F
  0.0345364060712328  0.9199477615026765  0.4294052572495062   F   F   F
  0.9630365418976012  0.3031953077946739  0.3512576249606170   F   F   F
  0.0696266904018330  0.3361057653809567  0.3763717815531962   F   F   F
  0.2082956574839798  0.7286442940463758  0.3953601014000157   F   F   F
  0.0389012628664673  0.4191019154304030  0.4991087535393461   F   F   F
  0.2396464616537060  0.2858730809706600  0.5878323334990228   F   F   F
  0.3985239002356238  0.1948693549077802  0.6449320602806665   F   F   F
  0.4531498551511888  0.5639754174251479  0.5794020318769597   F   F   F
  0.9097351550071693  0.7492294547023235  0.5574900983266531   F   F   F
  0.8691272712828919  0.1080433422095268  0.4422783307318099   F   F   F
  0.5725767945286506  0.6673318527169130  0.3761317316733468   F   F   F
  0.1424265590487721  0.1591254986639967  0.3759722435750490   F   F   F
  0.3505416668846806  0.7653410321057024  0.6066775069415655   F   F   F
  0.9109960497481637  0.8450475712761403  0.4831796236075121   F   F   F
  0.0613380104439898  0.5368717056838861  0.4422534820284341   F   F   F
  0.7083390276613883  0.5551665516973827  0.4199576800001736   F   F   F
  0.0754872572295611  0.8168068047449992  0.4829941554854784   F   F   F
  0.7004647711503367  0.8275557148620294  0.4326352913293690   F   F   F
  0.7300711344425821  0.0488197087117612  0.5430729413096387   F   F   F
  0.9189136975451717  0.3019737576919113  0.6320834266151181   F   F   F
  0.7350176342420980  0.8530999985557557  0.6129473496552862   F   F   F
  0.6251219543397468  0.5273940019123060  0.4863787091564404   F   F   F
  0.5565732986914895  0.6297030402341477  0.4672494240254110   F   F   F
  0.4251278506120144  0.2474426545821018  0.5553058031655169   F   F   F
  0.9782900937866188  0.7282436334557403  0.4767956400891720   F   F   F
  0.6539934396608658  0.5941353874206854  0.6334736268967944   F   F   F
  0.3969792776654018  0.7465501064666356  0.5152183315328287   F   F   F
  0.6026900684925138  0.5176654516222357  0.3856709925442061   F   F   F
  0.7198142353731640  0.6312610617992576  0.5571875588392103   F   F   F
  0.1467188108552548  0.3640030167947188  0.6199859716908449   F   F   F
  0.0662517116333916  0.5485363582885086  0.5419361276535994   F   F   F
  0.8188811282902364  0.8846481371530928  0.5367095344235722   F   F   F
  0.8282155306144290  0.3553851425745194  0.4519033357708793   F   F   F
  0.5273163346813377  0.2986892668675978  0.5326589731343532   F   F   F
  0.7367903083727541  0.4991638869249044  0.5955168543569727   F   F   F
  0.5574339360525684  0.1724311050277691  0.3949085375269945   F   F   F
  0.8059640829434258  0.2564125703207623  0.3832928600033014   F   F   F
  0.2374462167159379  0.9532507503228373  0.5079195554207132   F   F   F
  0.6929104095513665  0.7764603396311927  0.5413836808431896   F   F   F
  0.9238593895722218  0.9497307580422998  0.5529495284800277   F   F   F
  0.5257372223071499  0.3177811194315368  0.3985559351687087   F   F   F
  0.4687246573773507  0.9906083161002570  0.5459470287932291   F   F   F
  0.8376141948412581  0.0948511054416272  0.5397645849301398   F   F   F
  0.5379032529954273  0.1164174891624583  0.4862370923690094   F   F   F
  0.3501934424681892  0.1866087322829628  0.4396363938456389   F   F   F
  0.0117603227697671  0.9624138997505156  0.3352437574830063   F   F   F
  0.4574139603407588  0.5900266236130420  0.6743303084225332   F   F   F
  0.6549652215052149  0.9253975041590294  0.3792282539811964   F   F   F
  0.0762933429000086  0.6860262572550013  0.4358810225764742   F   F   F
  0.4524482051656165  0.4049006105645745  0.5528682671281757   F   F   F
  0.7192194365794862  0.7004208511946786  0.3795829994963285   F   F   F
  0.4512055897291134  0.7055943302015848  0.6001198856893808   F   F   F
  0.7525510590585540  0.7093245752524027  0.4762954835743187   F   F   F
  0.7786199860563485  0.1210498076174105  0.6207425910285451   F   F   F
  0.9932746154998640  0.3080134732727942  0.4484029789284989   F   F   F
  0.5329882310839196  0.5083880454365683  0.5302745308860324   F   F   F
  0.8167775851685377  0.4990617343205841  0.4234422052650615   F   F   F
  0.2358897544341332  0.1451427838936468  0.6053660008844304   F   F   F
  0.2035333056693176  0.8307013159295948  0.4705336293601903   F   F   F
  0.2398905777000877  0.5587145057436658  0.5230286289447861   F   F   F
  0.0610916218251703  0.6253842730939283  0.6237411185230357   F   F   F
  0.0460740721579711  0.6023466920262663  0.3541786312221902   F   F   F
  0.8008278918030030  0.9787858186772098  0.6058997452550869   F   F   F
  0.5379909096643800  0.0276974916307395  0.4045027517534763   F   F   F
  0.6063315714854625  0.3129315418596832  0.6050679501276619   F   F   F
  0.8615461074870723  0.0040808493425857  0.3692063291070653   F   F   F
  0.0949113079349573  0.1490228352536036  0.4670823258906296   F   F   F
  0.1714269899313337  0.2039734171851322  0.5309161675550698   F   F   F
  0.6409886548370807  0.7044387200849300  0.4548155821771758   F   F   F
  0.4367877833594562  0.4097684807507775  0.3864132536704119   F   F   F
  0.5744002482627337  0.0588914306267867  0.5711921891661120   F   F   F
  0.1514377461550822  0.5934080233507046  0.3889583608347777   F   F   F
  0.2677397900298786  0.6023375312719352  0.3923062966030031   F   F   F
  0.4402584599838875  0.3221981821637669  0.4703244327181508   F   F   F
  0.2380096658428670  0.1585111292073265  0.4299011866524154   F   F   F
  0.0727386917825328  0.1502808813414021  0.5625698285921459   F   F   F
  0.8449677272866936  0.5440207404682056  0.5998685653761413   F   F   F
  0.6211794283797261  0.2799398764502143  0.4109054511829981   F   F   F
  0.6026669933268991  0.8915266656811696  0.4672234595428861   F   F   F
  0.0313853911711632  0.1952898289720011  0.3889918752683101   F   F   F
  0.6077817104256624  0.1957173532222924  0.5471532892334565   F   F   F
  0.1327997262830110  0.9383546444265392  0.4794870772378772   F   F   F
  0.0802725493541772  0.2804059642661016  0.5115857557419830   F   F   F
  0.3725300398759614  0.1052326981582183  0.5681550947592839   F   F   F
  0.0664363516250006  0.6970076001366863  0.5357610410188940   F   F   F
  0.6664883802395920  0.4153848774500162  0.4300115561107631   F   F   F
  0.7993878302242265  0.7296636614861285  0.5641395442935959   F   F   F
  0.7038385585664102  0.9572084331836876  0.4701845621740759   F   F   F
  0.5987194184957119  0.6336406007984010  0.5526357823640780   F   F   F
  0.7228402998194312  0.2936846539655704  0.4516681052539582   F   F   F
  0.9776152597067522  0.3141066790946283  0.5472774295878509   F   F   F
  0.1582221711909071  0.6300068609517098  0.5705639424616678   F   F   F
  0.6333338447636834  0.3267830791508146  0.5078007023299378   F   F   F
  0.8195923159702971  0.3962001885709014  0.6054799221350251   F   F   F
  0.9585781980424741  0.0272430442537654  0.4169530046787955   F   F   F
  0.2820909937566185  0.1949986891524986  0.5186614833526306   F   F   F
  0.2492575497062219  0.4430328890313291  0.4610556955705079   F   F   F
  0.2733338980648199  0.8496471233888983  0.5678330672369825   F   F   F
  0.2036681492717136  0.6855731693326916  0.4868887178860462   F   F   F
  0.1471234534025641  0.4760698765562736  0.4925449251270066   F   F   F
  0.2245212357522490  0.4225884237154034  0.5568326589740806   F   F   F
  0.9114169782388899  0.4527445980703959  0.4737188145108959   F   F   F
  0.8697881760712605  0.7045601104075629  0.4641535209108483   F   F   F
  0.7381202077648155  0.0928346184210156  0.4452296472671975   F   F   F
  0.2221834364137223  0.9297811896885051  0.4079468165165281   F   F   F
  0.2516820554012327  0.4015352928459066  0.6497461561457243   F   F   F
  0.6304415588206211  0.8833177578696620  0.5934195159913713   F   F   F
  0.4102232652989244  0.7890623918912638  0.4234373851432949   F   F   F
  0.9177713526838360  0.1960382935517870  0.5082451459005242   F   F   F
  0.1325470583719763  0.4435361137187215  0.3322726622007863   F   F   F
  0.1551476808383612  0.3035232550984901  0.3105604161752922   F   F   F
  0.3730051452223293  0.1309070431484400  0.3479534200993726   F   F   F
  0.0345713641674763  0.2918813951038004  0.6335180519306505   F   F   F
  0.5726892607312024  0.2568681912710389  0.3200996781806822   F   F   F
  0.2452879323060984  0.7711239963944720  0.6496126721603943   F   F   F
  0.2073742988503469  0.6484050495897407  0.3103690611938177   F   F   F
  0.2753744117323080  0.3921912989361900  0.3673758273212613   F   F   F
  0.3653508124399352  0.5975866320683707  0.3422207943191111   F   F   F
  0.2263808501748272  0.0561808239321806  0.3581188824802055   F   F   F
  0.2412033349838580  0.1960782275144553  0.3293429668079639   F   F   F
  0.5012729261245497  0.8923016217637851  0.4548416832162587   F   F   F
  0.5500913441056809  0.8278483903951397  0.5343821515636620   F   F   F
  0.5449076985902366  0.6458933114504148  0.6332517634155082   F   F   F
  0.4785692652446940  0.1226077135808055  0.5959069359935185   F   F   F
  0.2624064929908769  0.6943883923916587  0.5685787701488891   F   F   F
  0.4424873414026109  0.8476886754869497  0.5814528193159347   F   F   F
  0.7654896563339832  0.6167925303653874  0.6495821982332544   F   F   F
  0.8447526863783494  0.8316868669276616  0.6230992364408223   F   F   F
  0.6400010361783757  0.7394811965112567  0.6207458844973601   F   F   F
  0.0081419317245732  0.0333774185144904  0.6030091055405151   F   F   F
  0.2846144276031737  0.0020028069714684  0.5933769128896884   F   F   F
  0.5031857937214639  0.9724161437125716  0.6286329255385823   F   F   F
  0.4558784555916162  0.4391339419099580  0.7291920837936345   T   T   T
  0.0832252792112911  0.6064203006159019  0.4064130837160320   F   F   F
  0.4090933289117658  0.7660264798678469  0.5744743567106383   F   F   F
  0.8417638189206400  0.4414531150138714  0.4678389696388976   F   F   F
  0.0170894936360568  0.9904820387337452  0.3936113541928137   F   F   F
  0.0147002065988957  0.2841902735343993  0.3910814136036507   F   F   F
  0.0092913958073382  0.1149709088109390  0.5725325194748265   F   F   F
  0.6095449670136759  0.6576374856754583  0.6102694012692780   F   F   F
  0.2139857067577040  0.4758773002141652  0.5097591262337389   F   F   F
  0.9150621277607272  0.7555609372428762  0.4962545438487922   F   F   F
  0.5205785424525260  0.1104556259083296  0.4259865881079392   F   F   F
  0.4186377135600523  0.1697762400672076  0.5890200997611643   F   F   F
  0.0834525281222085  0.1391720768766334  0.4069808717903314   F   F   F
  0.7018979344879455  0.0448462543081121  0.4873230277072054   F   F   F
  0.6650593546056740  0.8980374632893202  0.4374764361266443   F   F   F
  0.6500987439622605  0.5040270568778311  0.4301508871204760   F   F   F
  0.1984606475206618  0.9124822312100775  0.4639906909803457   F   F   F
  0.2142521591926965  0.3664759089546763  0.6036220333957516   F   F   F
  0.6736474283680707  0.8137333688114836  0.5945361843672430   F   F   F
  0.2166352921283448  0.6416459664210024  0.5385489846860025   F   F   F
  0.3687891183512946  0.7351277331247985  0.4592092972079129   F   F   F
  0.7974791713699361  0.8885748679786118  0.5957318484794172   F   F   F
  0.8797871184227120  0.9122622866473620  0.5119864069830840   F   F   F
  0.5762425739523565  0.5744208047270689  0.5116634466628582   F   F   F
  0.5899107707616267  0.1156214733394023  0.5251489452478424   F   F   F
  0.8581223411646519  0.1521132321647087  0.4951759473310489   F   F   F
  0.8354739026681628  0.6035889712028961  0.6458908663472940   F   F   F
  0.1337385207486648  0.3603189034452470  0.3568722791356791   F   F   F
  0.7906552882913616  0.2799392454557648  0.4418726542293072   F   F   F
  0.3991760967689615  0.1774948437530099  0.3960031981861079   F   F   F
  0.8559959723694561  0.7501456088989187  0.5965669243682825   F   F   F
  0.2833347391334229  0.9347437594945092  0.5492627953498825   F   F   F
  0.0230747322536402  0.3304475144031116  0.5022455100715746   F   F   F
  0.5745593847912573  0.6954900807820579  0.4355643604055430   F   F   F
  0.2302409542041772  0.7526004963776103  0.4519695445397645   F   F   F
  0.5936901408984667  0.2841212904560848  0.5482424286267999   F   F   F
  0.9752012496594489  0.2722722579251950  0.6026772291672771   F   F   F
  0.8889063590224922  0.0254089987032842  0.4242001869335610   F   F   F
  0.1046578308848538  0.1954678500893792  0.5177381070427813   F   F   F
  0.0481456608521569  0.7330370932417907  0.4826301941714348   F   F   F
  0.2319304393820119  0.2057792831527010  0.5609851684728397   F   F   F
  0.5614078070497825  0.2577852695391769  0.3812261074005363   F   F   F
  0.4761215275421193  0.6270021620702266  0.6204503789194717   F   F   F
  0.2814651659858072  0.7705893682147433  0.5974722953636160   F   F   F
  0.2085008252580423  0.6433998443080498  0.3717945352858223   F   F   F
  0.7404548733083658  0.7108824420906998  0.5358340027776904   F   F   F
  0.9865940844394459  0.9905361511255535  0.5503698283492682   F   F   F
  0.7031045577904180  0.7368181529665634  0.4342603982179796   F   F   F
  0.7878541889621573  0.0593980272384584  0.5767826875731217   F   F   F
  0.4563138979678243  0.3284515948311224  0.4092878915485585   F   F   F
  0.4496122583767601  0.9365352431262437  0.5942462145613163   F   F   F
  0.5086846196739927  0.0413888499776291  0.5859830878254328   F   F   F
  0.2442471516429308  0.3704063236853941  0.4209471039025985   F   F   F
  0.6585253436744694  0.3300021106527140  0.4503479098948588   F   F   F
  0.4600703835993798  0.3184042325212744  0.5289686216912770   F   F   F
  0.3372993678081997  0.5899425415699397  0.3990830096962270   F   F   F
  0.8032077099500086  0.4763664652870929  0.5797609894148295   F   F   F
  0.0692097893475037  0.8988591555082337  0.4805055068825652   F   F   F
  0.2119075788177369  0.1444543211161857  0.3735965933534686   F   F   F
  0.0782328565913559  0.4939849948658406  0.4946876202126234   F   F   F
  0.5575701889191933  0.8523400984338849  0.4747302534090920   F   F   F
  0.7183914354969687  0.5846898473750031  0.6096076806029416   F   F   F
  0.2866421241915660  0.2101017383532309  0.4591107728955208   F   F   F
  0.0880580684245089  0.6255281602164970  0.5676407897156963   F   F   F
  0.3534113418320430  0.0196959491487263  0.5778715762525550   F   F   F
  0.4855329404389934  0.4821159646691129  0.5715090088056911   F   F   F
  0.4968956369557559  0.4997160537242991  0.6951415927898730   T   T   T

  0.00000000E+00  0.00000000E+00  0.00000000E+00
  0.00000000E+00  0.00000000E+00  0.00000000E+00
  0.00000000E+00  0.00000000E+00  0.00000000E+00
  0.00000000E+00  0.00000000E+00  0.00000000E+00
  0.00000000E+00  0.00000000E+00  0.00000000E+00
  0.00000000E+00  0.00000000E+00  0.00000000E+00
  0.00000000E+00  0.00000000E+00  0.00000000E+00
  0.00000000E+00  0.00000000E+00  0.00000000E+00
  0.00000000E+00  0.00000000E+00  0.00000000E+00
  0.00000000E+00  0.00000000E+00  0.00000000E+00
  0.00000000E+00  0.00000000E+00  0.00000000E+00
  0.00000000E+00  0.00000000E+00  0.00000000E+00
  0.00000000E+00  0.00000000E+00  0.00000000E+00
  0.00000000E+00  0.00000000E+00  0.00000000E+00
  0.00000000E+00  0.00000000E+00  0.00000000E+00
  0.00000000E+00  0.00000000E+00  0.00000000E+00
  0.00000000E+00  0.00000000E+00  0.00000000E+00
  0.00000000E+00  0.00000000E+00  0.00000000E+00
  0.00000000E+00  0.00000000E+00  0.00000000E+00
  0.00000000E+00  0.00000000E+00  0.00000000E+00
  0.00000000E+00  0.00000000E+00  0.00000000E+00
  0.00000000E+00  0.00000000E+00  0.00000000E+00
  0.00000000E+00  0.00000000E+00  0.00000000E+00
  0.00000000E+00  0.00000000E+00  0.00000000E+00
  0.00000000E+00  0.00000000E+00  0.00000000E+00
  0.00000000E+00  0.00000000E+00  0.00000000E+00
  0.00000000E+00  0.00000000E+00  0.00000000E+00
  0.00000000E+00  0.00000000E+00  0.00000000E+00
  0.00000000E+00  0.00000000E+00  0.00000000E+00
  0.00000000E+00  0.00000000E+00  0.00000000E+00
  0.00000000E+00  0.00000000E+00  0.00000000E+00
  0.00000000E+00  0.00000000E+00  0.00000000E+00
  0.00000000E+00  0.00000000E+00  0.00000000E+00
  0.00000000E+00  0.00000000E+00  0.00000000E+00
  0.00000000E+00  0.00000000E+00  0.00000000E+00
  0.00000000E+00  0.00000000E+00  0.00000000E+00
  0.00000000E+00  0.00000000E+00  0.00000000E+00
  0.00000000E+00  0.00000000E+00  0.00000000E+00
  0.00000000E+00  0.00000000E+00  0.00000000E+00
  0.00000000E+00  0.00000000E+00  0.00000000E+00
  0.00000000E+00  0.00000000E+00  0.00000000E+00
  0.00000000E+00  0.00000000E+00  0.00000000E+00
  0.00000000E+00  0.00000000E+00  0.00000000E+00
  0.00000000E+00  0.00000000E+00  0.00000000E+00
  0.00000000E+00  0.00000000E+00  0.00000000E+00
  0.00000000E+00  0.00000000E+00  0.00000000E+00
  0.00000000E+00  0.00000000E+00  0.00000000E+00
  0.00000000E+00  0.00000000E+00  0.00000000E+00
  0.00000000E+00  0.00000000E+00  0.00000000E+00
  0.00000000E+00  0.00000000E+00  0.00000000E+00
  0.00000000E+00  0.00000000E+00  0.00000000E+00
  0.00000000E+00  0.00000000E+00  0.00000000E+00
  0.00000000E+00  0.00000000E+00  0.00000000E+00
  0.00000000E+00  0.00000000E+00  0.00000000E+00
  0.00000000E+00  0.00000000E+00  0.00000000E+00
  0.00000000E+00  0.00000000E+00  0.00000000E+00
  0.00000000E+00  0.00000000E+00  0.00000000E+00
  0.00000000E+00  0.00000000E+00  0.00000000E+00
  0.00000000E+00  0.00000000E+00  0.00000000E+00
  0.00000000E+00  0.00000000E+00  0.00000000E+00
  0.00000000E+00  0.00000000E+00  0.00000000E+00
  0.00000000E+00  0.00000000E+00  0.00000000E+00
  0.00000000E+00  0.00000000E+00  0.00000000E+00
  0.00000000E+00  0.00000000E+00  0.00000000E+00
  0.00000000E+00  0.00000000E+00  0.00000000E+00
  0.00000000E+00  0.00000000E+00  0.00000000E+00
  0.00000000E+00  0.00000000E+00  0.00000000E+00
  0.00000000E+00  0.00000000E+00  0.00000000E+00
  0.00000000E+00  0.00000000E+00  0.00000000E+00
  0.00000000E+00  0.00000000E+00  0.00000000E+00
  0.00000000E+00  0.00000000E+00  0.00000000E+00
  0.00000000E+00  0.00000000E+00  0.00000000E+00
  0.00000000E+00  0.00000000E+00  0.00000000E+00
  0.00000000E+00  0.00000000E+00  0.00000000E+00
  0.00000000E+00  0.00000000E+00  0.00000000E+00
  0.00000000E+00  0.00000000E+00  0.00000000E+00
  0.00000000E+00  0.00000000E+00  0.00000000E+00
  0.00000000E+00  0.00000000E+00  0.00000000E+00
  0.00000000E+00  0.00000000E+00  0.00000000E+00
  0.00000000E+00  0.00000000E+00  0.00000000E+00
  0.00000000E+00  0.00000000E+00  0.00000000E+00
  0.00000000E+00  0.00000000E+00  0.00000000E+00
  0.00000000E+00  0.00000000E+00  0.00000000E+00
  0.00000000E+00  0.00000000E+00  0.00000000E+00
  0.00000000E+00  0.00000000E+00  0.00000000E+00
  0.00000000E+00  0.00000000E+00  0.00000000E+00
  0.00000000E+00  0.00000000E+00  0.00000000E+00
  0.00000000E+00  0.00000000E+00  0.00000000E+00
  0.00000000E+00  0.00000000E+00  0.00000000E+00
  0.00000000E+00  0.00000000E+00  0.00000000E+00
  0.00000000E+00  0.00000000E+00  0.00000000E+00
  0.00000000E+00  0.00000000E+00  0.00000000E+00
  0.00000000E+00  0.00000000E+00  0.00000000E+00
  0.00000000E+00  0.00000000E+00  0.00000000E+00
  0.00000000E+00  0.00000000E+00  0.00000000E+00
  0.00000000E+00  0.00000000E+00  0.00000000E+00
  0.00000000E+00  0.00000000E+00  0.00000000E+00
  0.00000000E+00  0.00000000E+00  0.00000000E+00
  0.00000000E+00  0.00000000E+00  0.00000000E+00
  0.00000000E+00  0.00000000E+00  0.00000000E+00
  0.00000000E+00  0.00000000E+00  0.00000000E+00
  0.00000000E+00  0.00000000E+00  0.00000000E+00
  0.00000000E+00  0.00000000E+00  0.00000000E+00
  0.00000000E+00  0.00000000E+00  0.00000000E+00
  0.00000000E+00  0.00000000E+00  0.00000000E+00
  0.00000000E+00  0.00000000E+00  0.00000000E+00
  0.00000000E+00  0.00000000E+00  0.00000000E+00
  0.00000000E+00  0.00000000E+00  0.00000000E+00
  0.00000000E+00  0.00000000E+00  0.00000000E+00
  0.00000000E+00  0.00000000E+00  0.00000000E+00
  0.00000000E+00  0.00000000E+00  0.00000000E+00
  0.00000000E+00  0.00000000E+00  0.00000000E+00
  0.00000000E+00  0.00000000E+00  0.00000000E+00
  0.00000000E+00  0.00000000E+00  0.00000000E+00
  0.00000000E+00  0.00000000E+00  0.00000000E+00
  0.00000000E+00  0.00000000E+00  0.00000000E+00
  0.00000000E+00  0.00000000E+00  0.00000000E+00
  0.00000000E+00  0.00000000E+00  0.00000000E+00
  0.00000000E+00  0.00000000E+00  0.00000000E+00
  0.00000000E+00  0.00000000E+00  0.00000000E+00
  0.00000000E+00  0.00000000E+00  0.00000000E+00
  0.00000000E+00  0.00000000E+00  0.00000000E+00
  0.00000000E+00  0.00000000E+00  0.00000000E+00
  0.00000000E+00  0.00000000E+00  0.00000000E+00
  0.00000000E+00  0.00000000E+00  0.00000000E+00
  0.00000000E+00  0.00000000E+00  0.00000000E+00
  0.00000000E+00  0.00000000E+00  0.00000000E+00
  0.00000000E+00  0.00000000E+00  0.00000000E+00
  0.00000000E+00  0.00000000E+00  0.00000000E+00
  0.00000000E+00  0.00000000E+00  0.00000000E+00
  0.00000000E+00  0.00000000E+00  0.00000000E+00
  0.00000000E+00  0.00000000E+00  0.00000000E+00
  0.00000000E+00  0.00000000E+00  0.00000000E+00
  0.00000000E+00  0.00000000E+00  0.00000000E+00
  0.00000000E+00  0.00000000E+00  0.00000000E+00
  0.00000000E+00  0.00000000E+00  0.00000000E+00
  0.00000000E+00  0.00000000E+00  0.00000000E+00
  0.00000000E+00  0.00000000E+00  0.00000000E+00
  0.00000000E+00  0.00000000E+00  0.00000000E+00
  0.00000000E+00  0.00000000E+00  0.00000000E+00
  0.00000000E+00  0.00000000E+00  0.00000000E+00
  0.00000000E+00  0.00000000E+00  0.00000000E+00
  0.00000000E+00  0.00000000E+00  0.00000000E+00
  0.00000000E+00  0.00000000E+00  0.00000000E+00
  0.00000000E+00  0.00000000E+00  0.00000000E+00
  0.00000000E+00  0.00000000E+00  0.00000000E+00
  0.00000000E+00  0.00000000E+00  0.00000000E+00
  0.00000000E+00  0.00000000E+00  0.00000000E+00
  0.00000000E+00  0.00000000E+00  0.00000000E+00
  0.00000000E+00  0.00000000E+00  0.00000000E+00
  0.00000000E+00  0.00000000E+00  0.00000000E+00
  0.00000000E+00  0.00000000E+00  0.00000000E+00
  0.00000000E+00  0.00000000E+00  0.00000000E+00
  0.00000000E+00  0.00000000E+00  0.00000000E+00
  0.00000000E+00  0.00000000E+00  0.00000000E+00
  0.00000000E+00  0.00000000E+00  0.00000000E+00
  0.00000000E+00  0.00000000E+00  0.00000000E+00
  0.00000000E+00  0.00000000E+00  0.00000000E+00
  0.00000000E+00  0.00000000E+00  0.00000000E+00
  0.00000000E+00  0.00000000E+00  0.00000000E+00
  0.00000000E+00  0.00000000E+00  0.00000000E+00
  0.00000000E+00  0.00000000E+00  0.00000000E+00
  0.00000000E+00  0.00000000E+00  0.00000000E+00
  0.00000000E+00  0.00000000E+00  0.00000000E+00
  0.00000000E+00  0.00000000E+00  0.00000000E+00
  0.00000000E+00  0.00000000E+00  0.00000000E+00
  0.00000000E+00  0.00000000E+00  0.00000000E+00
  0.00000000E+00  0.00000000E+00  0.00000000E+00
  0.00000000E+00  0.00000000E+00  0.00000000E+00
  0.00000000E+00  0.00000000E+00  0.00000000E+00
  0.00000000E+00  0.00000000E+00  0.00000000E+00
  0.00000000E+00  0.00000000E+00  0.00000000E+00
  0.00000000E+00  0.00000000E+00  0.00000000E+00
  0.00000000E+00  0.00000000E+00  0.00000000E+00
  0.00000000E+00  0.00000000E+00  0.00000000E+00
  0.00000000E+00  0.00000000E+00  0.00000000E+00
  0.00000000E+00  0.00000000E+00  0.00000000E+00
  0.00000000E+00  0.00000000E+00  0.00000000E+00
  0.00000000E+00  0.00000000E+00  0.00000000E+00
  0.00000000E+00  0.00000000E+00  0.00000000E+00
  0.00000000E+00  0.00000000E+00  0.00000000E+00
  0.00000000E+00  0.00000000E+00  0.00000000E+00
  0.00000000E+00  0.00000000E+00  0.00000000E+00
  0.00000000E+00  0.00000000E+00  0.00000000E+00
  0.00000000E+00  0.00000000E+00  0.00000000E+00
  0.00000000E+00  0.00000000E+00  0.00000000E+00
  0.00000000E+00  0.00000000E+00  0.00000000E+00
  0.00000000E+00  0.00000000E+00  0.00000000E+00
  0.00000000E+00  0.00000000E+00  0.00000000E+00
  0.00000000E+00  0.00000000E+00  0.00000000E+00
  0.00000000E+00  0.00000000E+00  0.00000000E+00
  0.00000000E+00  0.00000000E+00  0.00000000E+00
  0.00000000E+00  0.00000000E+00  0.00000000E+00
  0.00000000E+00  0.00000000E+00  0.00000000E+00
  0.00000000E+00  0.00000000E+00  0.00000000E+00
  0.00000000E+00  0.00000000E+00  0.00000000E+00
  0.00000000E+00  0.00000000E+00  0.00000000E+00
  0.00000000E+00  0.00000000E+00  0.00000000E+00
  0.00000000E+00  0.00000000E+00  0.00000000E+00
  0.00000000E+00  0.00000000E+00  0.00000000E+00
  0.00000000E+00  0.00000000E+00  0.00000000E+00
  0.00000000E+00  0.00000000E+00  0.00000000E+00