C  H  O  Si W                           
   1.0000000000000000     
    23.4112945954000011    0.0000000000000000    0.0000000000000000
     0.0000000000000000   18.1212369513999967    0.0000000000000000
     0.0000000000000000    0.0000000000000000   26.8833665072999999
   C    H    O    Si   W 
     4    52   155    65     1
Selective dynamics
Direct
  0.5703816040857674  0.5665207300598496  0.8445970462205779   T   T   T
  0.5762673555501081  0.4964934834995489  0.8130100795467357   T   T   T
  0.6152552469922412  0.6258825350317494  0.8333496547542723   T   T   T
  0.5326429592987623  0.4360760305679747  0.8235424335251977   T   T   T
  0.7742010543167481  0.1234824534300358  0.6512239753389508   T   T   T
  0.9393659816904218  0.2979098113647041  0.3563349293400009   F   F   F
  0.8062780025056995  0.2265197457654509  0.3734565163880745   F   F   F
  0.9874774185445503  0.9628494490790658  0.3253027906056829   F   F   F
  0.6386709705916687  0.9827136985155320  0.3752311999972449   F   F   F
  0.8334767044401517  0.0142475121195673  0.3689926296547128   F   F   F
  0.7629313796624118  0.1604196043726489  0.4580381926778543   F   F   F
  0.9280883318558182  0.2685974002347038  0.5105378633268103   T   T   T
  0.5964311690945578  0.3235043947556662  0.3059271726651787   F   F   F
  0.9057928214676778  0.3559698686838999  0.6159099857180053   T   T   T
  0.5983163457616243  0.3760701873696988  0.6159695861687240   T   T   T
  0.6063969803714429  0.8906595518373095  0.5771064471869920   T   T   T
  0.0477149032163808  0.3557599534408524  0.6509950266397766   T   T   T
  0.9482088134892521  0.4387550742761164  0.4541014552468710   F   F   F
  0.7590766845863968  0.5495528409564372  0.4224881911837883   F   F   F
  0.8194190768883161  0.4152516259457713  0.6403013850483035   T   T   T
  0.6040403232220299  0.5879236752468842  0.3780347436188976   F   F   F
  0.7313720925931193  0.6651736343393182  0.3834605945055571   F   F   F
  0.8540912200421573  0.5616674445946330  0.4195961671555111   F   F   F
  0.0177028544603886  0.6230389977553088  0.3577783004107076   F   F   F
  0.8412970051396300  0.7315975219375090  0.4679422553080954   F   F   F
  0.8817085152540116  0.6092286130755866  0.7219402867138243   T   T   T
  0.5329286197741112  0.0048056100872245  0.4217030704774842   F   F   F
  0.2360328779740968  0.9993956837194560  0.3932050219465495   F   F   F
  0.2293119965611154  0.2570923065285982  0.3192303272980936   F   F   F
  0.1704393561745050  0.3490470785327915  0.2789829167401123   F   F   F
  0.3544851823821062  0.1748265540748264  0.3307727584112428   F   F   F
  0.2356541674775912  0.0649997745488164  0.3227384335196248   F   F   F
  0.5245566895455767  0.8451418636843115  0.5468644202350532   T   T   T
  0.3960454827225703  0.2619724387352775  0.6479706429709893   T   T   T
  0.2573095673624550  0.1107977429655094  0.5968508179325553   T   T   T
  0.3283192771219845  0.5063773130993567  0.4424346656312608   F   F   F
  0.4218944895423391  0.4579757072127180  0.4056905975982730   F   F   F
  0.4114378090370181  0.8123544561757612  0.3887867966224334   F   F   F
  0.2571406629317465  0.6746709273034526  0.2943268807443218   F   F   F
  0.3246796873695814  0.4377165620624979  0.3692576443915385   F   F   F
  0.4184126006972875  0.6035205019898910  0.3388198885480591   F   F   F
  0.1522959264009316  0.5072144951052380  0.3519294596467617   F   F   F
  0.6062076509446896  0.7172279769501344  0.3523979868156601   F   F   F
  0.4819451359588030  0.8806683177636927  0.4438283837725479   F   F   F
  0.1335767201755260  0.3401250381948344  0.6091012971012191   T   T   T
  0.0881886774798915  0.6840742654412324  0.6462985952738407   T   T   T
  0.2546441069917265  0.4007153774729630  0.6822033625110322   T   T   T
  0.2616684128351636  0.8352584752335659  0.6680635215741404   T   T   T
  0.5265872890024070  0.5878206325271620  0.8390838250778714   T   T   T
  0.5719513096525404  0.5494254023643350  0.8840552677471862   T   T   T
  0.6100093614884941  0.6734261040377234  0.8583963485717163   T   T   T
  0.6115104514777698  0.6451277189460143  0.7947033059070563   T   T   T
  0.6585860430074817  0.6035733896319329  0.8380317452087525   T   T   T
  0.4892420379632938  0.4582293641976349  0.8187452627265657   T   T   T
  0.5387695488654245  0.3897464194576088  0.7978923666726558   T   T   T
  0.5364607709253590  0.4172539025154549  0.8623874046605522   T   T   T
  0.3818800396073883  0.6675959459462888  0.4390000177989322   F   F   F
  0.3597539557939058  0.5232747164731535  0.4203881275781143   F   F   F
  0.8741743511513889  0.5815306733153420  0.6918306659650852   T   T   T
  0.3623135878537838  0.9774383138678644  0.5282951004468117   T   T   T
  0.0458544860498264  0.9508552249576709  0.5286069546139487   T   T   T
  0.6492937881119261  0.0981093940857747  0.4893766723794641   F   F   F
  0.0815844522936757  0.0715062700003273  0.3951107345583225   F   F   F
  0.4648378482448337  0.1488031733550272  0.4205972814427668   F   F   F
  0.8188224550990100  0.2328910282176224  0.4831666074103040   F   F   F
  0.9859829900154793  0.2000104021857467  0.5976580786391565   T   T   T
  0.2877035986969716  0.3184137195358971  0.4485122250900346   F   F   F
  0.5692924720092307  0.7943321397038829  0.4417510122690658   F   F   F
  0.4053173898734741  0.9913100486035731  0.6176447525549378   T   T   T
  0.1904555456718597  0.3692092978547876  0.4052731245300478   F   F   F
  0.8796380811750026  0.7066973149670446  0.6384847839529257   T   T   T
  0.8786343160404826  0.9864177806033112  0.4670384592975196   F   F   F
  0.3139854424024833  0.7801776834000549  0.4579252567998537   F   F   F
  0.4345492514348379  0.2804930655406466  0.3795963030273342   F   F   F
  0.8231307328374200  0.4837555034835859  0.5197596491461525   T   T   T
  0.9966262995229087  0.0909786153379457  0.5207367186311558   T   T   T
  0.5297858149978438  0.4657252998370538  0.6259797030485146   T   T   T
  0.0474747119311374  0.9391886101777303  0.4294052572495062   F   F   F
  0.9759748477575059  0.3224361564697276  0.3512576249606170   F   F   F
  0.0825649962617376  0.3553466140560104  0.3763717815531962   F   F   F
  0.2212339633438845  0.7478851427214295  0.3953601014000157   F   F   F
  0.0518395687263720  0.4383427641054567  0.4991087535393461   F   F   F
  0.2514956913794322  0.3043130561618952  0.5880751884436464   T   T   T
  0.4080596591261383  0.2113069473507565  0.6432785716885121   T   T   T
  0.4778359209552150  0.5782704109786252  0.5901437148099689   T   T   T
  0.9227296519205268  0.7684018474661585  0.5573770414579045   T   T   T
  0.8820655771427965  0.1272841908845805  0.4422783307318099   F   F   F
  0.5855151003885553  0.6865727013919667  0.3761317316733468   F   F   F
  0.1553648649086767  0.1783663473390504  0.3759722435750490   F   F   F
  0.3655336884811717  0.7835507459967843  0.6065060506940085   T   T   T
  0.9239343556080684  0.8642884199511940  0.4831796236075121   F   F   F
  0.0742763163038944  0.5561125543589398  0.4422534820284341   F   F   F
  0.7212773335212930  0.5744074003724364  0.4199576800001736   F   F   F
  0.0884255630894657  0.8360476534200529  0.4829941554854784   F   F   F
  0.7134030770102413  0.8467965635370831  0.4326352913293690   F   F   F
  0.7430503156924502  0.0685788743654214  0.5430251608771712   T   T   T
  0.9306546827757458  0.3187401155826493  0.6306984769994628   T   T   T
  0.7480661622592137  0.8738214887850262  0.6124848422897600   T   T   T
  0.6380602601996515  0.5466348505873597  0.4863787091564404   F   F   F
  0.5695116045513942  0.6489438889092014  0.4672494240254110   F   F   F
  0.4386528806670782  0.2651296406675954  0.5550620964366075   T   T   T
  0.9912283996465234  0.7474844821307940  0.4767956400891720   F   F   F
  0.6671742428993497  0.6147241568505777  0.6340239821850631   T   T   T
  0.4103164939920632  0.7658403172087560  0.5146833258806254   T   T   T
  0.6156283743524185  0.5369063002972894  0.3856709925442061   F   F   F
  0.7301646986360311  0.6524305591579065  0.5569107234640711   T   T   T
  0.1576039113645962  0.3822829486331685  0.6169284644278008   T   T   T
  0.0797937406593121  0.5677483079590147  0.5421702528304593   T   T   T
  0.8308219123132190  0.9035903943272316  0.5355798139831194   T   T   T
  0.8411538364743336  0.3746259912495731  0.4519033357708793   F   F   F
  0.5405008403871179  0.3153109380962178  0.5307657122397131   T   T   T
  0.7502674903767073  0.5207939106334507  0.5950401815120188   T   T   T
  0.5703722419124730  0.1916719537028229  0.3949085375269945   F   F   F
  0.8189023888033304  0.2756534189958160  0.3832928600033014   F   F   F
  0.2503845225758425  0.9724915989978911  0.5079195554207132   F   F   F
  0.7065982736293250  0.7983160016056914  0.5402143068831649   T   T   T
  0.9359219455632370  0.9689803039218745  0.5529548576319527   T   T   T
  0.5386755281670546  0.3370219681065905  0.3985559351687087   F   F   F
  0.4823739966123810  0.0094989811548913  0.5447921994056344   T   T   T
  0.8505673661922870  0.1144068458060232  0.5396777755622963   T   T   T
  0.5508415588553319  0.1356583378375120  0.4862370923690094   F   F   F
  0.3631317483280938  0.2058495809580165  0.4396363938456389   F   F   F
  0.0246986286296718  0.9816547484255693  0.3352437574830063   F   F   F
  0.4673906104810399  0.6210822619265315  0.6782253193632215   T   T   T
  0.6679035273651195  0.9446383528340832  0.3792282539811964   F   F   F
  0.0892316487599132  0.7052671059300550  0.4358810225764742   F   F   F
  0.4657492764866902  0.4220060774483372  0.5515082280938586   T   T   T
  0.7321577424393908  0.7196616998697323  0.3795829994963285   F   F   F
  0.4668989187117560  0.7242885075850225  0.5966278110309915   T   T   T
  0.7654893649184586  0.7285654239274564  0.4762954835743187   F   F   F
  0.7923801901429570  0.1404659741980794  0.6209208838826470   T   T   T
  0.0062129213597686  0.3272543219478479  0.4484029789284989   F   F   F
  0.5446583895285571  0.5252130189998496  0.5275202959068679   T   T   T
  0.8297158910284423  0.5183025829956378  0.4234422052650615   F   F   F
  0.2492396921974702  0.1625225419716330  0.6042349320008569   T   T   T
  0.2164716115292222  0.8499421646046486  0.4705336293601903   F   F   F
  0.2531131747958923  0.5777301897492322  0.5221512540905593   T   T   T
  0.0761101377028837  0.6446671513052138  0.6243369523130937   T   T   T
  0.0590123780178757  0.6215875407013201  0.3541786312221902   F   F   F
  0.8144020059901180  0.9985667316984035  0.6048979699393229   T   T   T
  0.5509292155242846  0.0469383403057932  0.4045027517534763   F   F   F
  0.6179560293878126  0.3320579850963554  0.6044194508598295   T   T   T
  0.8744844133469769  0.0233216980176394  0.3692063291070653   F   F   F
  0.1078496137948619  0.1682636839286573  0.4670823258906296   F   F   F
  0.1846581176030426  0.2223827285055719  0.5303523582984937   T   T   T
  0.6539269606969853  0.7236795687599837  0.4548155821771758   F   F   F
  0.4497260892193609  0.4290093294258313  0.3864132536704119   F   F   F
  0.5878632125681094  0.0775745211386933  0.5708319527564143   T   T   T
  0.1643760520149868  0.6126488720257584  0.3889583608347777   F   F   F
  0.2806780958897832  0.6215783799469889  0.3923062966030031   F   F   F
  0.4531967658437921  0.3414390308388207  0.4703244327181508   F   F   F
  0.2509479717027716  0.1777519778823802  0.4299011866524154   F   F   F
  0.0860290422813677  0.1684695330688939  0.5625461438691630   T   T   T
  0.8570035627294956  0.5713239783617894  0.5950168234714184   T   T   T
  0.6341177342396307  0.2991807251252681  0.4109054511829981   F   F   F
  0.6156052991868037  0.9107675143562233  0.4672234595428861   F   F   F
  0.0443236970310679  0.2145306776470548  0.3889918752683101   F   F   F
  0.6214988888374435  0.2145147258974589  0.5471433693622032   T   T   T
  0.1457380321429156  0.9575954931015929  0.4794870772378772   F   F   F
  0.0930131922512629  0.2993219672734000  0.5121915347145816   T   T   T
  0.3857399618198727  0.1229369334229773  0.5666602114550230   T   T   T
  0.0796401127261177  0.7157750795318876  0.5356614862946500   T   T   T
  0.6794266860994966  0.4346257261250699  0.4300115561107631   F   F   F
  0.8122686290987531  0.7486363929785398  0.5643680219280540   T   T   T
  0.7167768644263148  0.9764492818587414  0.4701845621740759   F   F   F
  0.6063895257054526  0.6496738055327711  0.5558483426350946   T   T   T
  0.7357786056793358  0.3129255026406241  0.4516681052539582   F   F   F
  0.9899416626247231  0.3335179759118674  0.5467801360752489   T   T   T
  0.1720449704076685  0.6490755764467906  0.5703717877474048   T   T   T
  0.6462721506235880  0.3460239278258683  0.5078007023299378   F   F   F
  0.8366915694488881  0.4236882476195802  0.6079511036852878   T   T   T
  0.9715165039023788  0.0464838929288192  0.4169530046787955   F   F   F
  0.2954189002353118  0.2147840496145506  0.5186329514346397   T   T   T
  0.2621958555661266  0.4622737377063828  0.4610556955705079   F   F   F
  0.2882173803154018  0.8664661937586828  0.5657432707239920   T   T   T
  0.2166064551316182  0.7048140180077453  0.4868887178860462   F   F   F
  0.1600617592624687  0.4953107252313274  0.4925449251270066   F   F   F
  0.2372598877019314  0.4419108275151089  0.5568005793053104   T   T   T
  0.9243552840987945  0.4719854467454496  0.4737188145108959   F   F   F
  0.8827264819311651  0.7238009590826167  0.4641535209108483   F   F   F
  0.7510585136247201  0.1120754670960693  0.4452296472671975   F   F   F
  0.2351217422736269  0.9490220383635588  0.4079468165165281   F   F   F
  0.2622704586848812  0.4208734630101816  0.6494856322528975   T   T   T
  0.6432470879763628  0.9037519780342720  0.5925434368721838   T   T   T
  0.4231615711588290  0.8083032405663175  0.4234373851432949   F   F   F
  0.9307096585437407  0.2152791422268407  0.5082451459005242   F   F   F
  0.1454853642318810  0.4627769623937752  0.3322726622007863   F   F   F
  0.1680859866982658  0.3227641037735438  0.3105604161752922   F   F   F
  0.3859434510822339  0.1501478918234938  0.3479534200993726   F   F   F
  0.0472409074457261  0.3097545734493181  0.6325220181234101   T   T   T
  0.5856275665911070  0.2761090399460926  0.3200996781806822   F   F   F
  0.2600905510067477  0.7902056857305979  0.6486340291358701   T   T   T
  0.2203126047102515  0.6676458982647944  0.3103690611938177   F   F   F
  0.2883127175922127  0.4114321476112437  0.3673758273212613   F   F   F
  0.3782891182998398  0.6168274807434244  0.3422207943191111   F   F   F
  0.2393191560347319  0.0754216726072343  0.3581188824802055   F   F   F
  0.2541416408437627  0.2153190761895090  0.3293429668079639   F   F   F
  0.5142112319844543  0.9115424704388388  0.4548416832162587   F   F   F
  0.5633950218287325  0.8458979816279424  0.5341175058595056   T   T   T
  0.5602692817761294  0.6757041431742437  0.6388686781814599   T   T   T
  0.4915559378633958  0.1407471830769893  0.5951589195491493   T   T   T
  0.2771322989523313  0.7120807573814361  0.5680676798440132   T   T   T
  0.4565588891312657  0.8666646446462707  0.5800517717118439   T   T   T
  0.7785699940601631  0.6396459823675471  0.6485271368416505   T   T   T
  0.8581058945177134  0.8528571432887730  0.6220758126282320   T   T   T
  0.6548977355664718  0.7601068962994830  0.6195405581512148   T   T   T
  0.0207617062220748  0.0520731931981899  0.6027545903231726   T   T   T
  0.2985149799306299  0.0192488819995873  0.5924778491155536   T   T   T
  0.5167196613649807  0.9907099378567779  0.6275910513421366   T   T   T
  0.4714298384336999  0.4696188442228788  0.7287146599234333   T   T   T
  0.6136877456340102  0.4897558311548451  0.7811962635644534   T   T   T
  0.0961635850711957  0.6256611492909556  0.4064130837160320   F   F   F
  0.4233356835210884  0.7854392242573454  0.5734665217138257   T   T   T
  0.8547021247805446  0.4606939636889251  0.4678389696388976   F   F   F
  0.0300277994959615  0.0097228874087989  0.3936113541928137   F   F   F
  0.0276385124588003  0.3034311222094530  0.3910814136036507   F   F   F
  0.0223089083906487  0.1334075112464248  0.5720163100974176   T   T   T
  0.6234606287443114  0.6786955422272669  0.6119011618650561   T   T   T
  0.2268161521134928  0.4949459772932912  0.5096771251228489   T   T   T
  0.9280004336206318  0.7748017859179299  0.4962545438487922   F   F   F
  0.5335168483124306  0.1296964745833833  0.4259865881079392   F   F   F
  0.4312800906916721  0.1872710868841381  0.5881864144917799   T   T   T
  0.0963908339821131  0.1584129255516871  0.4069808717903314   F   F   F
  0.7148362403478501  0.0640871029831658  0.4873230277072054   F   F   F
  0.6779976604655786  0.9172783119643739  0.4374764361266443   F   F   F
  0.6630370498221652  0.5232679055528848  0.4301508871204760   F   F   F
  0.2113989533805665  0.9317230798851313  0.4639906909803457   F   F   F
  0.2258330735327689  0.3851377969907617  0.6030669746530464   T   T   T
  0.6870930115229257  0.8348573851391592  0.5935544737897374   T   T   T
  0.2302679909076062  0.6604481780037474  0.5382529309109003   T   T   T
  0.3817274242111992  0.7543685817998522  0.4592092972079129   F   F   F
  0.8103751740515293  0.9087807094599683  0.5948524502769246   T   T   T
  0.8922432771449849  0.9312440794494776  0.5118179289804914   T   T   T
  0.5886522096424329  0.5930406585558927  0.5116625626065172   T   T   T
  0.6030279189244254  0.1348612069945219  0.5250750566830362   T   T   T
  0.8710606470245565  0.1713540808397624  0.4951759473310489   F   F   F
  0.8483437429229355  0.6258450440375540  0.6438723282741847   T   T   T
  0.1466768266085694  0.3795597521203007  0.3568722791356791   F   F   F
  0.8035935941512662  0.2991800941308185  0.4418726542293072   F   F   F
  0.4121144026288661  0.1967356924280637  0.3960031981861079   F   F   F
  0.8689988153547361  0.7707777734739736  0.5964649067797225   T   T   T
  0.2971053037402314  0.9524015278196529  0.5482026321400610   T   T   T
  0.0360130381135448  0.3496883630781653  0.5022455100715746   F   F   F
  0.5874976906511620  0.7147309294571116  0.4355643604055430   F   F   F
  0.2431792600640819  0.7718413450526640  0.4519695445397645   F   F   F
  0.6066995320042068  0.3027345756171584  0.5479416521538738   T   T   T
  0.9877379660397665  0.2906460044918404  0.6019066770515877   T   T   T
  0.9018446648823968  0.0446498473783379  0.4242001869335610   F   F   F
  0.1176843213551280  0.2143444626188256  0.5178924496807795   T   T   T
  0.0610839667120615  0.7522779419168444  0.4826301941714348   F   F   F
  0.2449611885687801  0.2244153744527395  0.5608338221004558   T   T   T
  0.5743461129096872  0.2770261182142306  0.3812261074005363   F   F   F
  0.4940643478481945  0.6535803410425700  0.6246734077630407   T   T   T
  0.2962912718070854  0.7884871785661787  0.5966375898443488   T   T   T
  0.2214391311179469  0.6626406929831035  0.3717945352858223   F   F   F
  0.7531690273292853  0.7311796972076152  0.5357942695013804   T   T   T
  0.9989530203287558  0.0091413734904009  0.5502680333624781   T   T   T
  0.7160428636503227  0.7560590016416171  0.4342603982179796   F   F   F
  0.8008944414243757  0.0793365425465495  0.5766955058008989   T   T   T
  0.4692522038277289  0.3476924435061761  0.4092878915485585   F   F   F
  0.4633770940736142  0.9554117733624494  0.5930133001769704   T   T   T
  0.5221809786115017  0.0600089142151390  0.5851997322503451   T   T   T
  0.2571854575028354  0.3896471723604478  0.4209471039025985   F   F   F
  0.6714636495343740  0.3492429593277677  0.4503479098948588   F   F   F
  0.4734529763542810  0.3353388990691926  0.5283458282061417   T   T   T
  0.3502376736681043  0.6091833902449935  0.3990830096962270   F   F   F
  0.8168347156012885  0.4998085710540181  0.5789672523600231   T   T   T
  0.0821480952074083  0.9181000041832874  0.4805055068825652   F   F   F
  0.2248458846776415  0.1636951697912394  0.3735965933534686   F   F   F
  0.0911711624512606  0.5132258435408943  0.4946876202126234   F   F   F
  0.5705084947790979  0.8715809471089386  0.4747302534090920   F   F   F
  0.7311067414789960  0.6057915352378274  0.6096258447147775   T   T   T
  0.2995804300514706  0.2293425870282846  0.4591107728955208   F   F   F
  0.1017775671058274  0.6447494257980395  0.5678136428749809   T   T   T
  0.3668740664173100  0.0375187067564582  0.5764170958020642   T   T   T
  0.5026379907642706  0.4945856632073458  0.5712120257707483   T   T   T
  0.4874195460485424  0.5182319843370919  0.6760388167853790   T   T   T

  0.00000000E+00  0.00000000E+00  0.00000000E+00
  0.00000000E+00  0.00000000E+00  0.00000000E+00
  0.00000000E+00  0.00000000E+00  0.00000000E+00
  0.00000000E+00  0.00000000E+00  0.00000000E+00
  0.00000000E+00  0.00000000E+00  0.00000000E+00
  0.00000000E+00  0.00000000E+00  0.00000000E+00
  0.00000000E+00  0.00000000E+00  0.00000000E+00
  0.00000000E+00  0.00000000E+00  0.00000000E+00
  0.00000000E+00  0.00000000E+00  0.00000000E+00
  0.00000000E+00  0.00000000E+00  0.00000000E+00
  0.00000000E+00  0.00000000E+00  0.00000000E+00
  0.00000000E+00  0.00000000E+00  0.00000000E+00
  0.00000000E+00  0.00000000E+00  0.00000000E+00
  0.00000000E+00  0.00000000E+00  0.00000000E+00
  0.00000000E+00  0.00000000E+00  0.00000000E+00
  0.00000000E+00  0.00000000E+00  0.00000000E+00
  0.00000000E+00  0.00000000E+00  0.00000000E+00
  0.00000000E+00  0.00000000E+00  0.00000000E+00
  0.00000000E+00  0.00000000E+00  0.00000000E+00
  0.00000000E+00  0.00000000E+00  0.00000000E+00
  0.00000000E+00  0.00000000E+00  0.00000000E+00
  0.00000000E+00  0.00000000E+00  0.00000000E+00
  0.00000000E+00  0.00000000E+00  0.00000000E+00
  0.00000000E+00  0.00000000E+00  0.00000000E+00
  0.00000000E+00  0.00000000E+00  0.00000000E+00
  0.00000000E+00  0.00000000E+00  0.00000000E+00
  0.00000000E+00  0.00000000E+00  0.00000000E+00
  0.00000000E+00  0.00000000E+00  0.00000000E+00
  0.00000000E+00  0.00000000E+00  0.00000000E+00
  0.00000000E+00  0.00000000E+00  0.00000000E+00
  0.00000000E+00  0.00000000E+00  0.00000000E+00
  0.00000000E+00  0.00000000E+00  0.00000000E+00
  0.00000000E+00  0.00000000E+00  0.00000000E+00
  0.00000000E+00  0.00000000E+00  0.00000000E+00
  0.00000000E+00  0.00000000E+00  0.00000000E+00
  0.00000000E+00  0.00000000E+00  0.00000000E+00
  0.00000000E+00  0.00000000E+00  0.00000000E+00
  0.00000000E+00  0.00000000E+00  0.00000000E+00
  0.00000000E+00  0.00000000E+00  0.00000000E+00
  0.00000000E+00  0.00000000E+00  0.00000000E+00
  0.00000000E+00  0.00000000E+00  0.00000000E+00
  0.00000000E+00  0.00000000E+00  0.00000000E+00
  0.00000000E+00  0.00000000E+00  0.00000000E+00
  0.00000000E+00  0.00000000E+00  0.00000000E+00
  0.00000000E+00  0.00000000E+00  0.00000000E+00
  0.00000000E+00  0.00000000E+00  0.00000000E+00
  0.00000000E+00  0.00000000E+00  0.00000000E+00
  0.00000000E+00  0.00000000E+00  0.00000000E+00
  0.00000000E+00  0.00000000E+00  0.00000000E+00
  0.00000000E+00  0.00000000E+00  0.00000000E+00
  0.00000000E+00  0.00000000E+00  0.00000000E+00
  0.00000000E+00  0.00000000E+00  0.00000000E+00
  0.00000000E+00  0.00000000E+00  0.00000000E+00
  0.00000000E+00  0.00000000E+00  0.00000000E+00
  0.00000000E+00  0.00000000E+00  0.00000000E+00
  0.00000000E+00  0.00000000E+00  0.00000000E+00
  0.00000000E+00  0.00000000E+00  0.00000000E+00
  0.00000000E+00  0.00000000E+00  0.00000000E+00
  0.00000000E+00  0.00000000E+00  0.00000000E+00
  0.00000000E+00  0.00000000E+00  0.00000000E+00
  0.00000000E+00  0.00000000E+00  0.00000000E+00
  0.00000000E+00  0.00000000E+00  0.00000000E+00
  0.00000000E+00  0.00000000E+00  0.00000000E+00
  0.00000000E+00  0.00000000E+00  0.00000000E+00
  0.00000000E+00  0.00000000E+00  0.00000000E+00
  0.00000000E+00  0.00000000E+00  0.00000000E+00
  0.00000000E+00  0.00000000E+00  0.00000000E+00
  0.00000000E+00  0.00000000E+00  0.00000000E+00
  0.00000000E+00  0.00000000E+00  0.00000000E+00
  0.00000000E+00  0.00000000E+00  0.00000000E+00
  0.00000000E+00  0.00000000E+00  0.00000000E+00
  0.00000000E+00  0.00000000E+00  0.00000000E+00
  0.00000000E+00  0.00000000E+00  0.00000000E+00
  0.00000000E+00  0.00000000E+00  0.00000000E+00
  0.00000000E+00  0.00000000E+00  0.00000000E+00
  0.00000000E+00  0.00000000E+00  0.00000000E+00
  0.00000000E+00  0.00000000E+00  0.00000000E+00
  0.00000000E+00  0.00000000E+00  0.00000000E+00
  0.00000000E+00  0.00000000E+00  0.00000000E+00
  0.00000000E+00  0.00000000E+00  0.00000000E+00
  0.00000000E+00  0.00000000E+00  0.00000000E+00
  0.00000000E+00  0.00000000E+00  0.00000000E+00
  0.00000000E+00  0.00000000E+00  0.00000000E+00
  0.00000000E+00  0.00000000E+00  0.00000000E+00
  0.00000000E+00  0.00000000E+00  0.00000000E+00
  0.00000000E+00  0.00000000E+00  0.00000000E+00
  0.00000000E+00  0.00000000E+00  0.00000000E+00
  0.00000000E+00  0.00000000E+00  0.00000000E+00
  0.00000000E+00  0.00000000E+00  0.00000000E+00
  0.00000000E+00  0.00000000E+00  0.00000000E+00
  0.00000000E+00  0.00000000E+00  0.00000000E+00
  0.00000000E+00  0.00000000E+00  0.00000000E+00
  0.00000000E+00  0.00000000E+00  0.00000000E+00
  0.00000000E+00  0.00000000E+00  0.00000000E+00
  0.00000000E+00  0.00000000E+00  0.00000000E+00
  0.00000000E+00  0.00000000E+00  0.00000000E+00
  0.00000000E+00  0.00000000E+00  0.00000000E+00
  0.00000000E+00  0.00000000E+00  0.00000000E+00
  0.00000000E+00  0.00000000E+00  0.00000000E+00
  0.00000000E+00  0.00000000E+00  0.00000000E+00
  0.00000000E+00  0.00000000E+00  0.00000000E+00
  0.00000000E+00  0.00000000E+00  0.00000000E+00
  0.00000000E+00  0.00000000E+00  0.00000000E+00
  0.00000000E+00  0.00000000E+00  0.00000000E+00
  0.00000000E+00  0.00000000E+00  0.00000000E+00
  0.00000000E+00  0.00000000E+00  0.00000000E+00
  0.00000000E+00  0.00000000E+00  0.00000000E+00
  0.00000000E+00  0.00000000E+00  0.00000000E+00
  0.00000000E+00  0.00000000E+00  0.00000000E+00
  0.00000000E+00  0.00000000E+00  0.00000000E+00
  0.00000000E+00  0.00000000E+00  0.00000000E+00
  0.00000000E+00  0.00000000E+00  0.00000000E+00
  0.00000000E+00  0.00000000E+00  0.00000000E+00
  0.00000000E+00  0.00000000E+00  0.00000000E+00
  0.00000000E+00  0.00000000E+00  0.00000000E+00
  0.00000000E+00  0.00000000E+00  0.00000000E+00
  0.00000000E+00  0.00000000E+00  0.00000000E+00
  0.00000000E+00  0.00000000E+00  0.00000000E+00
  0.00000000E+00  0.00000000E+00  0.00000000E+00
  0.00000000E+00  0.00000000E+00  0.00000000E+00
  0.00000000E+00  0.00000000E+00  0.00000000E+00
  0.00000000E+00  0.00000000E+00  0.00000000E+00
  0.00000000E+00  0.00000000E+00  0.00000000E+00
  0.00000000E+00  0.00000000E+00  0.00000000E+00
  0.00000000E+00  0.00000000E+00  0.00000000E+00
  0.00000000E+00  0.00000000E+00  0.00000000E+00
  0.00000000E+00  0.00000000E+00  0.00000000E+00
  0.00000000E+00  0.00000000E+00  0.00000000E+00
  0.00000000E+00  0.00000000E+00  0.00000000E+00
  0.00000000E+00  0.00000000E+00  0.00000000E+00
  0.00000000E+00  0.00000000E+00  0.00000000E+00
  0.00000000E+00  0.00000000E+00  0.00000000E+00
  0.00000000E+00  0.00000000E+00  0.00000000E+00
  0.00000000E+00  0.00000000E+00  0.00000000E+00
  0.00000000E+00  0.00000000E+00  0.00000000E+00
  0.00000000E+00  0.00000000E+00  0.00000000E+00
  0.00000000E+00  0.00000000E+00  0.00000000E+00
  0.00000000E+00  0.00000000E+00  0.00000000E+00
  0.00000000E+00  0.00000000E+00  0.00000000E+00
  0.00000000E+00  0.00000000E+00  0.00000000E+00
  0.00000000E+00  0.00000000E+00  0.00000000E+00
  0.00000000E+00  0.00000000E+00  0.00000000E+00
  0.00000000E+00  0.00000000E+00  0.00000000E+00
  0.00000000E+00  0.00000000E+00  0.00000000E+00
  0.00000000E+00  0.00000000E+00  0.00000000E+00
  0.00000000E+00  0.00000000E+00  0.00000000E+00
  0.00000000E+00  0.00000000E+00  0.00000000E+00
  0.00000000E+00  0.00000000E+00  0.00000000E+00
  0.00000000E+00  0.00000000E+00  0.00000000E+00
  0.00000000E+00  0.00000000E+00  0.00000000E+00
  0.00000000E+00  0.00000000E+00  0.00000000E+00
  0.00000000E+00  0.00000000E+00  0.00000000E+00
  0.00000000E+00  0.00000000E+00  0.00000000E+00
  0.00000000E+00  0.00000000E+00  0.00000000E+00
  0.00000000E+00  0.00000000E+00  0.00000000E+00
  0.00000000E+00  0.00000000E+00  0.00000000E+00
  0.00000000E+00  0.00000000E+00  0.00000000E+00
  0.00000000E+00  0.00000000E+00  0.00000000E+00
  0.00000000E+00  0.00000000E+00  0.00000000E+00
  0.00000000E+00  0.00000000E+00  0.00000000E+00
  0.00000000E+00  0.00000000E+00  0.00000000E+00
  0.00000000E+00  0.00000000E+00  0.00000000E+00
  0.00000000E+00  0.00000000E+00  0.00000000E+00
  0.00000000E+00  0.00000000E+00  0.00000000E+00
  0.00000000E+00  0.00000000E+00  0.00000000E+00
  0.00000000E+00  0.00000000E+00  0.00000000E+00
  0.00000000E+00  0.00000000E+00  0.00000000E+00
  0.00000000E+00  0.00000000E+00  0.00000000E+00
  0.00000000E+00  0.00000000E+00  0.00000000E+00
  0.00000000E+00  0.00000000E+00  0.00000000E+00
  0.00000000E+00  0.00000000E+00  0.00000000E+00
  0.00000000E+00  0.00000000E+00  0.00000000E+00
  0.00000000E+00  0.00000000E+00  0.00000000E+00
  0.00000000E+00  0.00000000E+00  0.00000000E+00
  0.00000000E+00  0.00000000E+00  0.00000000E+00
  0.00000000E+00  0.00000000E+00  0.00000000E+00
  0.00000000E+00  0.00000000E+00  0.00000000E+00
  0.00000000E+00  0.00000000E+00  0.00000000E+00
  0.00000000E+00  0.00000000E+00  0.00000000E+00
  0.00000000E+00  0.00000000E+00  0.00000000E+00
  0.00000000E+00  0.00000000E+00  0.00000000E+00
  0.00000000E+00  0.00000000E+00  0.00000000E+00
  0.00000000E+00  0.00000000E+00  0.00000000E+00
  0.00000000E+00  0.00000000E+00  0.00000000E+00
  0.00000000E+00  0.00000000E+00  0.00000000E+00
  0.00000000E+00  0.00000000E+00  0.00000000E+00
  0.00000000E+00  0.00000000E+00  0.00000000E+00
  0.00000000E+00  0.00000000E+00  0.00000000E+00
  0.00000000E+00  0.00000000E+00  0.00000000E+00
  0.00000000E+00  0.00000000E+00  0.00000000E+00
  0.00000000E+00  0.00000000E+00  0.00000000E+00
  0.00000000E+00  0.00000000E+00  0.00000000E+00