 C  H  O Si  W                          
    1.000000000000000     
    23.4112945954000011    0.0000000000000000    0.0000000000000000
     0.0000000000000000   18.1212369513999967    0.0000000000000000
     0.0000000000000000    0.0000000000000000   26.8833665072999999
   C    H    O    Si   W 
     2    48   154    65     1
Selective dynamics
Direct
  0.5447732445083631  0.5300547071447923  0.7485314564858925   T   T   T
  0.5699677094244606  0.4694742212056084  0.7185138199766428   T   T   T
  0.7607228263603218  0.1036403073303447  0.6510363221184292   F   F   F
  0.9264276758305172  0.2786689626896504  0.3563349293400009   F   F   F
  0.7933396966457948  0.2072788970903972  0.3734565163880745   F   F   F
  0.9745391126846457  0.9436086004040121  0.3253027906056829   F   F   F
  0.6257326647317640  0.9634728498404783  0.3752311999972449   F   F   F
  0.8205383985802470  0.9950066634445136  0.3689926296547128   F   F   F
  0.7499930738025071  0.1411787556975952  0.4580381926778543   F   F   F
  0.9154594366975530  0.2494647931070020  0.5090716689580574   F   F   F
  0.5834928632346532  0.3042635460806125  0.3059271726651787   F   F   F
  0.8914640873209407  0.3345147798317214  0.6160513408553641   F   F   F
  0.5884301892894683  0.3587280396584731  0.6152043570066752   F   F   F
  0.5932698711624411  0.8709739962288126  0.5780994704732549   F   F   F
  0.0335517120983795  0.3374948132681865  0.6524540194103494   F   F   F
  0.9352705076293475  0.4195142256010627  0.4541014552468710   F   F   F
  0.7461383787264921  0.5303119922813835  0.4224881911837883   F   F   F
  0.7983432419951910  0.3826827819312797  0.6351125247755789   F   F   F
  0.5911020173621253  0.5686828265718304  0.3780347436188976   F   F   F
  0.7184337867332147  0.6459327856642645  0.3834605945055571   F   F   F
  0.8411529141822527  0.5424265959195793  0.4195961671555111   F   F   F
  0.0047645486004839  0.6037981490802551  0.3577783004107076   F   F   F
  0.8283586992797254  0.7123566732624553  0.4679422553080954   F   F   F
  0.8755790666924952  0.5987695037846308  0.7219999354898761   F   F   F
  0.5199903139142066  0.9855647614121708  0.4217030704774842   F   F   F
  0.2230945721141921  0.9801548350444023  0.3932050219465495   F   F   F
  0.2163736907012108  0.2378514578535444  0.3192303272980936   F   F   F
  0.1575010503146004  0.3298062298577378  0.2789829167401123   F   F   F
  0.3415468765222016  0.1555857053997727  0.3307727584112428   F   F   F
  0.2227158616176865  0.0457589258737627  0.3227384335196248   F   F   F
  0.5110226540377170  0.8262408239866303  0.5466594272746903   F   F   F
  0.3752207576467157  0.2390877401583040  0.6478381271123652   F   F   F
  0.2437056059071239  0.0935506529157806  0.5986633174575147   F   F   F
  0.3153809712620799  0.4871364644243030  0.4424346656312608   F   F   F
  0.4089561836824345  0.4387348585376643  0.4056905975982730   F   F   F
  0.3984995031771135  0.7931136075007075  0.3887867966224334   F   F   F
  0.2442023570718419  0.6554300786283989  0.2943268807443218   F   F   F
  0.3117413815096768  0.4184757133874442  0.3692576443915385   F   F   F
  0.4054742948373828  0.5842796533148373  0.3388198885480591   F   F   F
  0.1393576205410270  0.4879736464301843  0.3519294596467617   F   F   F
  0.5932693450847850  0.6979871282750807  0.3523979868156601   F   F   F
  0.4690068300988983  0.8614274690886390  0.4438283837725479   F   F   F
  0.1216393396482829  0.3245475334571353  0.6118395114619091   F   F   F
  0.0707244040017727  0.6665062431709927  0.6451286156348885   F   F   F
  0.2408117295943839  0.3871379231589103  0.6827264370718567   F   F   F
  0.2464777624811916  0.8161822009130901  0.6695407237875628   F   F   F
  0.5321051473837102  0.5193795792150269  0.7870545083192724   T   T   T
  0.5604642835075708  0.5862925651902842  0.7421695730352695   T   T   T
  0.5749198781688207  0.4149936857452019  0.7355396751080789   T   T   T
  0.6032769048779087  0.4831869691092123  0.6914977246253358   T   T   T
  0.3689417337474836  0.6483550972712351  0.4390000177989322   F   F   F
  0.3468156499340012  0.5040338677980998  0.4203881275781143   F   F   F
  0.8605553677343920  0.5660803244758341  0.6966644012717751   F   F   F
  0.3488797560395867  0.9591651823181024  0.5303453787792733   F   F   F
  0.0333618086584124  0.9322748063240169  0.5285927163482569   F   F   F
  0.6363554822520214  0.0788685454107210  0.4893766723794641   F   F   F
  0.0686461464337711  0.0522654213252736  0.3951107345583225   F   F   F
  0.4518995423849290  0.1295623246799735  0.4205972814427668   F   F   F
  0.8058841492391053  0.2136501795425687  0.4831666074103040   F   F   F
  0.9731859879321547  0.1814696900549748  0.5988014784999223   F   F   F
  0.2747652928370670  0.2991728708608434  0.4485122250900346   F   F   F
  0.5563541661493261  0.7750912910288292  0.4417510122690658   F   F   F
  0.3918497628353137  0.9737825606319817  0.6194259942637359   F   F   F
  0.1775172398119551  0.3499684491797339  0.4052731245300478   F   F   F
  0.8663187368285179  0.6842630217359016  0.6373392479356568   F   F   F
  0.8656960101805780  0.9671769319282575  0.4670384592975196   F   F   F
  0.3010471365425786  0.7609368347250012  0.4579252567998537   F   F   F
  0.4216109455749333  0.2612522168655929  0.3795963030273342   F   F   F
  0.8111539512931571  0.4654560048846577  0.5201561837385498   F   F   F
  0.9835695126164836  0.0726972427525254  0.5212587223743839   F   F   F
  0.5115083253375232  0.4613858552750401  0.6270888027703023   F   F   F
  0.0345364060712328  0.9199477615026765  0.4294052572495062   F   F   F
  0.9630365418976012  0.3031953077946739  0.3512576249606170   F   F   F
  0.0696266904018330  0.3361057653809567  0.3763717815531962   F   F   F
  0.2082956574839798  0.7286442940463758  0.3953601014000157   F   F   F
  0.0389012628664673  0.4191019154304030  0.4991087535393461   F   F   F
  0.2392946275624084  0.2863583577829800  0.5876792815087057   F   F   F
  0.3985427379104323  0.1951028998432207  0.6449923244275482   F   F   F
  0.4548655729522437  0.5641235178527495  0.5798406268284850   F   F   F
  0.9097018062991040  0.7491819511202209  0.5575108239117128   F   F   F
  0.8691272712828919  0.1080433422095268  0.4422783307318099   F   F   F
  0.5725767945286506  0.6673318527169130  0.3761317316733468   F   F   F
  0.1424265590487721  0.1591254986639967  0.3759722435750490   F   F   F
  0.3504864043185947  0.7653076692686582  0.6066002080436377   F   F   F
  0.9109960497481637  0.8450475712761403  0.4831796236075121   F   F   F
  0.0613380104439898  0.5368717056838861  0.4422534820284341   F   F   F
  0.7083390276613883  0.5551665516973827  0.4199576800001736   F   F   F
  0.0754872572295611  0.8168068047449992  0.4829941554854784   F   F   F
  0.7004647711503367  0.8275557148620294  0.4326352913293690   F   F   F
  0.7301510226415360  0.0490660129086393  0.5429863437619034   F   F   F
  0.9189371294816908  0.3017947965470640  0.6320891990418858   F   F   F
  0.7347949093850090  0.8527304620415848  0.6128720192608483   F   F   F
  0.6251219543397468  0.5273940019123060  0.4863787091564404   F   F   F
  0.5565732986914895  0.6297030402341477  0.4672494240254110   F   F   F
  0.4251215470404119  0.2475048733692233  0.5553464993503852   F   F   F
  0.9782900937866188  0.7282436334557403  0.4767956400891720   F   F   F
  0.6539519482267977  0.5939681493642865  0.6334016386648216   F   F   F
  0.3969321329439381  0.7465625242822256  0.5152369528977800   F   F   F
  0.6026900684925138  0.5176654516222357  0.3856709925442061   F   F   F
  0.7193992036357599  0.6311052049796473  0.5570110251316365   F   F   F
  0.1467592377671849  0.3656039604134946  0.6197817875521068   F   F   F
  0.0660580583152992  0.5484482212273321  0.5419454033557400   F   F   F
  0.8188490725626068  0.8845924686840689  0.5366366402035538   F   F   F
  0.8282155306144290  0.3553851425745194  0.4519033357708793   F   F   F
  0.5272177342114830  0.2990410782331026  0.5328042974563374   F   F   F
  0.7368107298654039  0.4991900849119517  0.5956848335045564   F   F   F
  0.5574339360525684  0.1724311050277691  0.3949085375269945   F   F   F
  0.8059640829434258  0.2564125703207623  0.3832928600033014   F   F   F
  0.2374462167159379  0.9532507503228373  0.5079195554207132   F   F   F
  0.6925622600318064  0.7759471709456633  0.5414264212977571   F   F   F
  0.9238125537348978  0.9497999227010183  0.5529860516640568   F   F   F
  0.5257372223071499  0.3177811194315368  0.3985559351687087   F   F   F
  0.4686455576711168  0.9907105270599743  0.5459846610600323   F   F   F
  0.8377064366987454  0.0948074693684049  0.5397882206138505   F   F   F
  0.5379032529954273  0.1164174891624583  0.4862370923690094   F   F   F
  0.3501934424681892  0.1866087322829628  0.4396363938456389   F   F   F
  0.0117603227697671  0.9624138997505156  0.3352437574830063   F   F   F
  0.4538066078255198  0.5894438856149975  0.6737636360096744   F   F   F
  0.6549652215052149  0.9253975041590294  0.3792282539811964   F   F   F
  0.0762933429000086  0.6860262572550013  0.4358810225764742   F   F   F
  0.4515142338492026  0.4049066740186618  0.5521858873486636   F   F   F
  0.7192194365794862  0.7004208511946786  0.3795829994963285   F   F   F
  0.4513212124797477  0.7056549443208127  0.6001993474839793   F   F   F
  0.7525510590585540  0.7093245752524027  0.4762954835743187   F   F   F
  0.7785695027773158  0.1211047753749170  0.6207100704948942   F   F   F
  0.9932746154998640  0.3080134732727942  0.4484029789284989   F   F   F
  0.5330382505928952  0.5068807625927434  0.5300673584047928   F   F   F
  0.8167775851685377  0.4990617343205841  0.4234422052650615   F   F   F
  0.2359991384388564  0.1455765513722724  0.6054494994539326   F   F   F
  0.2035333056693176  0.8307013159295948  0.4705336293601903   F   F   F
  0.2399101257929459  0.5590025440192221  0.5228671008921211   F   F   F
  0.0610331396075949  0.6253076350723674  0.6237712876355701   F   F   F
  0.0460740721579711  0.6023466920262663  0.3541786312221902   F   F   F
  0.8005261220937783  0.9786403341137841  0.6057457342329897   F   F   F
  0.5379909096643800  0.0276974916307395  0.4045027517534763   F   F   F
  0.6063758207991299  0.3127290231962334  0.6050998215661920   F   F   F
  0.8615461074870723  0.0040808493425857  0.3692063291070653   F   F   F
  0.0949113079349573  0.1490228352536036  0.4670823258906296   F   F   F
  0.1714430962339009  0.2039354096042914  0.5308955160101618   F   F   F
  0.6409886548370807  0.7044387200849300  0.4548155821771758   F   F   F
  0.4367877833594562  0.4097684807507775  0.3864132536704119   F   F   F
  0.5744102046638346  0.0588788329444796  0.5712301188364748   F   F   F
  0.1514377461550822  0.5934080233507046  0.3889583608347777   F   F   F
  0.2677397900298786  0.6023375312719352  0.3923062966030031   F   F   F
  0.4402584599838875  0.3221981821637669  0.4703244327181508   F   F   F
  0.2380096658428670  0.1585111292073265  0.4299011866524154   F   F   F
  0.0727759301432869  0.1501340830326967  0.5625438342480038   F   F   F
  0.8447667947301838  0.5442760639991491  0.5998608663977123   F   F   F
  0.6211794283797261  0.2799398764502143  0.4109054511829981   F   F   F
  0.6026669933268991  0.8915266656811696  0.4672234595428861   F   F   F
  0.0313853911711632  0.1952898289720011  0.3889918752683101   F   F   F
  0.6076055631827018  0.1958020799523155  0.5470108575845600   F   F   F
  0.1327997262830110  0.9383546444265392  0.4794870772378772   F   F   F
  0.0802537917445889  0.2803610007947412  0.5116032633365108   F   F   F
  0.3724839332980991  0.1054633037365562  0.5682681776660417   F   F   F
  0.0662332507937009  0.6969465971225475  0.5357808750703867   F   F   F
  0.6664883802395920  0.4153848774500162  0.4300115561107631   F   F   F
  0.7992615362303042  0.7295695580358910  0.5641204388253982   F   F   F
  0.7038385585664102  0.9572084331836876  0.4701845621740759   F   F   F
  0.5965928729945773  0.6327144326523850  0.5535538680614422   F   F   F
  0.7228402998194312  0.2936846539655704  0.4516681052539582   F   F   F
  0.9775522651318767  0.3141434490935140  0.5472540896339879   F   F   F
  0.1579983954447286  0.6298418918891642  0.5704410530107467   F   F   F
  0.6333338447636834  0.3267830791508146  0.5078007023299378   F   F   F
  0.8196104665645052  0.3963000277450064  0.6055249276720431   F   F   F
  0.9585781980424741  0.0272430442537654  0.4169530046787955   F   F   F
  0.2820117960792459  0.1951751982558605  0.5186639837094802   F   F   F
  0.2492575497062219  0.4430328890313291  0.4610556955705079   F   F   F
  0.2728727708361021  0.8502322923425254  0.5686495108869494   F   F   F
  0.2036681492717136  0.6855731693326916  0.4868887178860462   F   F   F
  0.1471234534025641  0.4760698765562736  0.4925449251270066   F   F   F
  0.2250201212561862  0.4232472435367711  0.5568443171798307   F   F   F
  0.9114169782388899  0.4527445980703959  0.4737188145108959   F   F   F
  0.8697881760712605  0.7045601104075629  0.4641535209108483   F   F   F
  0.7381202077648155  0.0928346184210156  0.4452296472671975   F   F   F
  0.2221834364137223  0.9297811896885051  0.4079468165165281   F   F   F
  0.2520554953830256  0.4020708813633220  0.6495408028646423   F   F   F
  0.6303447700228659  0.8832050070007540  0.5934371135221070   F   F   F
  0.4102232652989244  0.7890623918912638  0.4234373851432949   F   F   F
  0.9177713526838360  0.1960382935517870  0.5082451459005242   F   F   F
  0.1325470583719763  0.4435361137187215  0.3322726622007863   F   F   F
  0.1551476808383612  0.3035232550984901  0.3105604161752922   F   F   F
  0.3730051452223293  0.1309070431484400  0.3479534200993726   F   F   F
  0.0345934498827063  0.2919593395305142  0.6334472260316275   F   F   F
  0.5726892607312024  0.2568681912710389  0.3200996781806822   F   F   F
  0.2452828429566836  0.7712196736762778  0.6499719911113644   F   F   F
  0.2073742988503469  0.6484050495897407  0.3103690611938177   F   F   F
  0.2753744117323080  0.3921912989361900  0.3673758273212613   F   F   F
  0.3653508124399352  0.5975866320683707  0.3422207943191111   F   F   F
  0.2263808501748272  0.0561808239321806  0.3581188824802055   F   F   F
  0.2412033349838580  0.1960782275144553  0.3293429668079639   F   F   F
  0.5012729261245497  0.8923016217637851  0.4548416832162587   F   F   F
  0.5500160736119710  0.8278323520616553  0.5343424198447053   F   F   F
  0.5446524068206031  0.6457459356329167  0.6352129914572160   F   F   F
  0.4785689330578364  0.1226117028315841  0.5959102107248100   F   F   F
  0.2618876110670811  0.6949092092537228  0.5686917418698840   F   F   F
  0.4422700479569031  0.8478760302102373  0.5813337332234951   F   F   F
  0.7652707061231823  0.6173816354883428  0.6494243363587628   F   F   F
  0.8445871863275300  0.8317430651531552  0.6230111963141169   F   F   F
  0.6390363366998102  0.7392628572664393  0.6206532575040882   F   F   F
  0.0081228081757274  0.0333302904537902  0.6030063820767282   F   F   F
  0.2844999800029626  0.0026087055979431  0.5934476043320629   F   F   F
  0.5031616965307890  0.9723303973650985  0.6286301686913944   F   F   F
  0.4431414438563905  0.4341360118065793  0.7255608368179409   T   T   T
  0.0832252792112911  0.6064203006159019  0.4064130837160320   F   F   F
  0.4090829425858686  0.7660820867548210  0.5744772669815177   F   F   F
  0.8417638189206400  0.4414531150138714  0.4678389696388976   F   F   F
  0.0170894936360568  0.9904820387337452  0.3936113541928137   F   F   F
  0.0147002065988957  0.2841902735343993  0.3910814136036507   F   F   F
  0.0092651120498459  0.1149584697169530  0.5725258015360168   F   F   F
  0.6089510249300218  0.6570217794771835  0.6109835079321968   F   F   F
  0.2140342481310569  0.4761236813979721  0.5096915490496130   F   F   F
  0.9150621277607272  0.7555609372428762  0.4962545438487922   F   F   F
  0.5205785424525260  0.1104556259083296  0.4259865881079392   F   F   F
  0.4186787822104563  0.1699419683454551  0.5890845344293396   F   F   F
  0.0834525281222085  0.1391720768766334  0.4069808717903314   F   F   F
  0.7018979344879455  0.0448462543081121  0.4873230277072054   F   F   F
  0.6650593546056740  0.8980374632893202  0.4374764361266443   F   F   F
  0.6500987439622605  0.5040270568778311  0.4301508871204760   F   F   F
  0.1984606475206618  0.9124822312100775  0.4639906909803457   F   F   F
  0.2143636802022684  0.3671569550782010  0.6035505247766366   F   F   F
  0.6733016959183402  0.8133149948636316  0.5945442626124091   F   F   F
  0.2164379898298847  0.6417728260512163  0.5385774101359573   F   F   F
  0.3687891183512946  0.7351277331247985  0.4592092972079129   F   F   F
  0.7972267488390443  0.8884169061766585  0.5956127973404577   F   F   F
  0.8797652238317539  0.9122701500927590  0.5120029154161401   F   F   F
  0.5757905594895902  0.5738580313962274  0.5116746869792550   F   F   F
  0.5899004431713308  0.1156101601955797  0.5251417968399537   F   F   F
  0.8581223411646519  0.1521132321647087  0.4951759473310489   F   F   F
  0.8352450422093796  0.6038353939495877  0.6459122860818809   F   F   F
  0.1337385207486648  0.3603189034452470  0.3568722791356791   F   F   F
  0.7906552882913616  0.2799392454557648  0.4418726542293072   F   F   F
  0.3991760967689615  0.1774948437530099  0.3960031981861079   F   F   F
  0.8558791654300677  0.7501739811858954  0.5965148435105547   F   F   F
  0.2831612559447336  0.9351055081659112  0.5495014943252983   F   F   F
  0.0230747322536402  0.3304475144031116  0.5022455100715746   F   F   F
  0.5745593847912573  0.6954900807820579  0.4355643604055430   F   F   F
  0.2302409542041772  0.7526004963776103  0.4519695445397645   F   F   F
  0.5936242697033975  0.2842622940256874  0.5482632584236313   F   F   F
  0.9752206926668450  0.2722365726657472  0.6026316297916665   F   F   F
  0.8889063590224922  0.0254089987032842  0.4242001869335610   F   F   F
  0.1046744685286143  0.1954291770295669  0.5177483330520971   F   F   F
  0.0481456608521569  0.7330370932417907  0.4826301941714348   F   F   F
  0.2319049480086406  0.2060718222287505  0.5610101730406498   F   F   F
  0.5614078070497825  0.2577852695391769  0.3812261074005363   F   F   F
  0.4765157408992806  0.6275904798265302  0.6210723224146193   F   F   F
  0.2812787770281844  0.7708515556275799  0.5977428852779951   F   F   F
  0.2085008252580423  0.6433998443080498  0.3717945352858223   F   F   F
  0.7403244344115478  0.7106531548399317  0.5358058003491166   F   F   F
  0.9865615064196831  0.9905276071628251  0.5503638337071450   F   F   F
  0.7031045577904180  0.7368181529665634  0.4342603982179796   F   F   F
  0.7878695428021771  0.0594368903515416  0.5767647559464848   F   F   F
  0.4563138979678243  0.3284515948311224  0.4092878915485585   F   F   F
  0.4494741127072501  0.9367094700175258  0.5942780989661998   F   F   F
  0.5087019327757218  0.0414229152674466  0.5860026866882038   F   F   F
  0.2442471516429308  0.3704063236853941  0.4209471039025985   F   F   F
  0.6585253436744694  0.3300021106527140  0.4503479098948588   F   F   F
  0.4599411906722679  0.3184427208511238  0.5288807160250641   F   F   F
  0.3372993678081997  0.5899425415699397  0.3990830096962270   F   F   F
  0.8031946073470095  0.4764478170958810  0.5797936288639818   F   F   F
  0.0692097893475037  0.8988591555082337  0.4805055068825652   F   F   F
  0.2119075788177369  0.1444543211161857  0.3735965933534686   F   F   F
  0.0782328565913559  0.4939849948658406  0.4946876202126234   F   F   F
  0.5575701889191933  0.8523400984338849  0.4747302534090920   F   F   F
  0.7182650025461115  0.5847437855607538  0.6095696234145933   F   F   F
  0.2866421241915660  0.2101017383532309  0.4591107728955208   F   F   F
  0.0878319743711131  0.6254430921179477  0.5676302102824948   F   F   F
  0.3533677588534374  0.0199847432298839  0.5780916623578705   F   F   F
  0.4855979493448359  0.4809978153484948  0.5714260481751268   F   F   F
  0.4860365689371023  0.4948366569170163  0.6931222072702633   T   T   T
 
  0.00000000E+00  0.00000000E+00  0.00000000E+00
  0.00000000E+00  0.00000000E+00  0.00000000E+00
  0.00000000E+00  0.00000000E+00  0.00000000E+00
  0.00000000E+00  0.00000000E+00  0.00000000E+00
  0.00000000E+00  0.00000000E+00  0.00000000E+00
  0.00000000E+00  0.00000000E+00  0.00000000E+00
  0.00000000E+00  0.00000000E+00  0.00000000E+00
  0.00000000E+00  0.00000000E+00  0.00000000E+00
  0.00000000E+00  0.00000000E+00  0.00000000E+00
  0.00000000E+00  0.00000000E+00  0.00000000E+00
  0.00000000E+00  0.00000000E+00  0.00000000E+00
  0.00000000E+00  0.00000000E+00  0.00000000E+00
  0.00000000E+00  0.00000000E+00  0.00000000E+00
  0.00000000E+00  0.00000000E+00  0.00000000E+00
  0.00000000E+00  0.00000000E+00  0.00000000E+00
  0.00000000E+00  0.00000000E+00  0.00000000E+00
  0.00000000E+00  0.00000000E+00  0.00000000E+00
  0.00000000E+00  0.00000000E+00  0.00000000E+00
  0.00000000E+00  0.00000000E+00  0.00000000E+00
  0.00000000E+00  0.00000000E+00  0.00000000E+00
  0.00000000E+00  0.00000000E+00  0.00000000E+00
  0.00000000E+00  0.00000000E+00  0.00000000E+00
  0.00000000E+00  0.00000000E+00  0.00000000E+00
  0.00000000E+00  0.00000000E+00  0.00000000E+00
  0.00000000E+00  0.00000000E+00  0.00000000E+00
  0.00000000E+00  0.00000000E+00  0.00000000E+00
  0.00000000E+00  0.00000000E+00  0.00000000E+00
  0.00000000E+00  0.00000000E+00  0.00000000E+00
  0.00000000E+00  0.00000000E+00  0.00000000E+00
  0.00000000E+00  0.00000000E+00  0.00000000E+00
  0.00000000E+00  0.00000000E+00  0.00000000E+00
  0.00000000E+00  0.00000000E+00  0.00000000E+00
  0.00000000E+00  0.00000000E+00  0.00000000E+00
  0.00000000E+00  0.00000000E+00  0.00000000E+00
  0.00000000E+00  0.00000000E+00  0.00000000E+00
  0.00000000E+00  0.00000000E+00  0.00000000E+00
  0.00000000E+00  0.00000000E+00  0.00000000E+00
  0.00000000E+00  0.00000000E+00  0.00000000E+00
  0.00000000E+00  0.00000000E+00  0.00000000E+00
  0.00000000E+00  0.00000000E+00  0.00000000E+00
  0.00000000E+00  0.00000000E+00  0.00000000E+00
  0.00000000E+00  0.00000000E+00  0.00000000E+00
  0.00000000E+00  0.00000000E+00  0.00000000E+00
  0.00000000E+00  0.00000000E+00  0.00000000E+00
  0.00000000E+00  0.00000000E+00  0.00000000E+00
  0.00000000E+00  0.00000000E+00  0.00000000E+00
  0.00000000E+00  0.00000000E+00  0.00000000E+00
  0.00000000E+00  0.00000000E+00  0.00000000E+00
  0.00000000E+00  0.00000000E+00  0.00000000E+00
  0.00000000E+00  0.00000000E+00  0.00000000E+00
  0.00000000E+00  0.00000000E+00  0.00000000E+00
  0.00000000E+00  0.00000000E+00  0.00000000E+00
  0.00000000E+00  0.00000000E+00  0.00000000E+00
  0.00000000E+00  0.00000000E+00  0.00000000E+00
  0.00000000E+00  0.00000000E+00  0.00000000E+00
  0.00000000E+00  0.00000000E+00  0.00000000E+00
  0.00000000E+00  0.00000000E+00  0.00000000E+00
  0.00000000E+00  0.00000000E+00  0.00000000E+00
  0.00000000E+00  0.00000000E+00  0.00000000E+00
  0.00000000E+00  0.00000000E+00  0.00000000E+00
  0.00000000E+00  0.00000000E+00  0.00000000E+00
  0.00000000E+00  0.00000000E+00  0.00000000E+00
  0.00000000E+00  0.00000000E+00  0.00000000E+00
  0.00000000E+00  0.00000000E+00  0.00000000E+00
  0.00000000E+00  0.00000000E+00  0.00000000E+00
  0.00000000E+00  0.00000000E+00  0.00000000E+00
  0.00000000E+00  0.00000000E+00  0.00000000E+00
  0.00000000E+00  0.00000000E+00  0.00000000E+00
  0.00000000E+00  0.00000000E+00  0.00000000E+00
  0.00000000E+00  0.00000000E+00  0.00000000E+00
  0.00000000E+00  0.00000000E+00  0.00000000E+00
  0.00000000E+00  0.00000000E+00  0.00000000E+00
  0.00000000E+00  0.00000000E+00  0.00000000E+00
  0.00000000E+00  0.00000000E+00  0.00000000E+00
  0.00000000E+00  0.00000000E+00  0.00000000E+00
  0.00000000E+00  0.00000000E+00  0.00000000E+00
  0.00000000E+00  0.00000000E+00  0.00000000E+00
  0.00000000E+00  0.00000000E+00  0.00000000E+00
  0.00000000E+00  0.00000000E+00  0.00000000E+00
  0.00000000E+00  0.00000000E+00  0.00000000E+00
  0.00000000E+00  0.00000000E+00  0.00000000E+00
  0.00000000E+00  0.00000000E+00  0.00000000E+00
  0.00000000E+00  0.00000000E+00  0.00000000E+00
  0.00000000E+00  0.00000000E+00  0.00000000E+00
  0.00000000E+00  0.00000000E+00  0.00000000E+00
  0.00000000E+00  0.00000000E+00  0.00000000E+00
  0.00000000E+00  0.00000000E+00  0.00000000E+00
  0.00000000E+00  0.00000000E+00  0.00000000E+00
  0.00000000E+00  0.00000000E+00  0.00000000E+00
  0.00000000E+00  0.00000000E+00  0.00000000E+00
  0.00000000E+00  0.00000000E+00  0.00000000E+00
  0.00000000E+00  0.00000000E+00  0.00000000E+00
  0.00000000E+00  0.00000000E+00  0.00000000E+00
  0.00000000E+00  0.00000000E+00  0.00000000E+00
  0.00000000E+00  0.00000000E+00  0.00000000E+00
  0.00000000E+00  0.00000000E+00  0.00000000E+00
  0.00000000E+00  0.00000000E+00  0.00000000E+00
  0.00000000E+00  0.00000000E+00  0.00000000E+00
  0.00000000E+00  0.00000000E+00  0.00000000E+00
  0.00000000E+00  0.00000000E+00  0.00000000E+00
  0.00000000E+00  0.00000000E+00  0.00000000E+00
  0.00000000E+00  0.00000000E+00  0.00000000E+00
  0.00000000E+00  0.00000000E+00  0.00000000E+00
  0.00000000E+00  0.00000000E+00  0.00000000E+00
  0.00000000E+00  0.00000000E+00  0.00000000E+00
  0.00000000E+00  0.00000000E+00  0.00000000E+00
  0.00000000E+00  0.00000000E+00  0.00000000E+00
  0.00000000E+00  0.00000000E+00  0.00000000E+00
  0.00000000E+00  0.00000000E+00  0.00000000E+00
  0.00000000E+00  0.00000000E+00  0.00000000E+00
  0.00000000E+00  0.00000000E+00  0.00000000E+00
  0.00000000E+00  0.00000000E+00  0.00000000E+00
  0.00000000E+00  0.00000000E+00  0.00000000E+00
  0.00000000E+00  0.00000000E+00  0.00000000E+00
  0.00000000E+00  0.00000000E+00  0.00000000E+00
  0.00000000E+00  0.00000000E+00  0.00000000E+00
  0.00000000E+00  0.00000000E+00  0.00000000E+00
  0.00000000E+00  0.00000000E+00  0.00000000E+00
  0.00000000E+00  0.00000000E+00  0.00000000E+00
  0.00000000E+00  0.00000000E+00  0.00000000E+00
  0.00000000E+00  0.00000000E+00  0.00000000E+00
  0.00000000E+00  0.00000000E+00  0.00000000E+00
  0.00000000E+00  0.00000000E+00  0.00000000E+00
  0.00000000E+00  0.00000000E+00  0.00000000E+00
  0.00000000E+00  0.00000000E+00  0.00000000E+00
  0.00000000E+00  0.00000000E+00  0.00000000E+00
  0.00000000E+00  0.00000000E+00  0.00000000E+00
  0.00000000E+00  0.00000000E+00  0.00000000E+00
  0.00000000E+00  0.00000000E+00  0.00000000E+00
  0.00000000E+00  0.00000000E+00  0.00000000E+00
  0.00000000E+00  0.00000000E+00  0.00000000E+00
  0.00000000E+00  0.00000000E+00  0.00000000E+00
  0.00000000E+00  0.00000000E+00  0.00000000E+00
  0.00000000E+00  0.00000000E+00  0.00000000E+00
  0.00000000E+00  0.00000000E+00  0.00000000E+00
  0.00000000E+00  0.00000000E+00  0.00000000E+00
  0.00000000E+00  0.00000000E+00  0.00000000E+00
  0.00000000E+00  0.00000000E+00  0.00000000E+00
  0.00000000E+00  0.00000000E+00  0.00000000E+00
  0.00000000E+00  0.00000000E+00  0.00000000E+00
  0.00000000E+00  0.00000000E+00  0.00000000E+00
  0.00000000E+00  0.00000000E+00  0.00000000E+00
  0.00000000E+00  0.00000000E+00  0.00000000E+00
  0.00000000E+00  0.00000000E+00  0.00000000E+00
  0.00000000E+00  0.00000000E+00  0.00000000E+00
  0.00000000E+00  0.00000000E+00  0.00000000E+00
  0.00000000E+00  0.00000000E+00  0.00000000E+00
  0.00000000E+00  0.00000000E+00  0.00000000E+00
  0.00000000E+00  0.00000000E+00  0.00000000E+00
  0.00000000E+00  0.00000000E+00  0.00000000E+00
  0.00000000E+00  0.00000000E+00  0.00000000E+00
  0.00000000E+00  0.00000000E+00  0.00000000E+00
  0.00000000E+00  0.00000000E+00  0.00000000E+00
  0.00000000E+00  0.00000000E+00  0.00000000E+00
  0.00000000E+00  0.00000000E+00  0.00000000E+00
  0.00000000E+00  0.00000000E+00  0.00000000E+00
  0.00000000E+00  0.00000000E+00  0.00000000E+00
  0.00000000E+00  0.00000000E+00  0.00000000E+00
  0.00000000E+00  0.00000000E+00  0.00000000E+00
  0.00000000E+00  0.00000000E+00  0.00000000E+00
  0.00000000E+00  0.00000000E+00  0.00000000E+00
  0.00000000E+00  0.00000000E+00  0.00000000E+00
  0.00000000E+00  0.00000000E+00  0.00000000E+00
  0.00000000E+00  0.00000000E+00  0.00000000E+00
  0.00000000E+00  0.00000000E+00  0.00000000E+00
  0.00000000E+00  0.00000000E+00  0.00000000E+00
  0.00000000E+00  0.00000000E+00  0.00000000E+00
  0.00000000E+00  0.00000000E+00  0.00000000E+00
  0.00000000E+00  0.00000000E+00  0.00000000E+00
  0.00000000E+00  0.00000000E+00  0.00000000E+00
  0.00000000E+00  0.00000000E+00  0.00000000E+00
  0.00000000E+00  0.00000000E+00  0.00000000E+00
  0.00000000E+00  0.00000000E+00  0.00000000E+00
  0.00000000E+00  0.00000000E+00  0.00000000E+00
  0.00000000E+00  0.00000000E+00  0.00000000E+00
  0.00000000E+00  0.00000000E+00  0.00000000E+00
  0.00000000E+00  0.00000000E+00  0.00000000E+00
  0.00000000E+00  0.00000000E+00  0.00000000E+00
  0.00000000E+00  0.00000000E+00  0.00000000E+00
  0.00000000E+00  0.00000000E+00  0.00000000E+00
  0.00000000E+00  0.00000000E+00  0.00000000E+00
  0.00000000E+00  0.00000000E+00  0.00000000E+00
  0.00000000E+00  0.00000000E+00  0.00000000E+00
  0.00000000E+00  0.00000000E+00  0.00000000E+00
  0.00000000E+00  0.00000000E+00  0.00000000E+00
  0.00000000E+00  0.00000000E+00  0.00000000E+00
  0.00000000E+00  0.00000000E+00  0.00000000E+00
  0.00000000E+00  0.00000000E+00  0.00000000E+00
  0.00000000E+00  0.00000000E+00  0.00000000E+00
  0.00000000E+00  0.00000000E+00  0.00000000E+00
  0.00000000E+00  0.00000000E+00  0.00000000E+00
  0.00000000E+00  0.00000000E+00  0.00000000E+00
  0.00000000E+00  0.00000000E+00  0.00000000E+00
  0.00000000E+00  0.00000000E+00  0.00000000E+00
  0.00000000E+00  0.00000000E+00  0.00000000E+00
  0.00000000E+00  0.00000000E+00  0.00000000E+00
  0.00000000E+00  0.00000000E+00  0.00000000E+00
  0.00000000E+00  0.00000000E+00  0.00000000E+00
  0.00000000E+00  0.00000000E+00  0.00000000E+00
  0.00000000E+00  0.00000000E+00  0.00000000E+00
  0.00000000E+00  0.00000000E+00  0.00000000E+00
  0.00000000E+00  0.00000000E+00  0.00000000E+00