 C  H  O Si  W 
 1.0000000000000000
    23.4112945954000011    0.0000000000000000    0.0000000000000000
     0.0000000000000000   18.1212369513999967    0.0000000000000000
     0.0000000000000000    0.0000000000000000   26.8833665072999999
 C   H   O   Si  W  
   4  52 154  65   1
Selective dynamics
Cartesian
 13.1362569021452558  9.3353630178236759 19.4199322606939653   T   T   T
 11.9096498551360632 11.1787337613089335 21.7692424865257692   T   T   T
 13.5687332238119183  8.1356710130994259 20.2269266994134149   T   T   T
 12.1372368352665791 12.3608133955753789 21.1800970601122245   T   T   T
 17.8183704830911616  2.8741788442920870 17.5057708970115513   T   T   T
 21.6888712413008591  6.0498263066050999  9.5794825048000938   F   F   F
 18.5731093535008611  4.7561500119050431 10.0397684046000943   F   F   F
 22.8152222629008428 18.0993550400051184  8.7452341457000404   F   F   F
 14.6492117531008716  0.3380828595050411 10.0874778744999212   F   F   F
 19.2098661771007961  0.9095145678050452  9.9197641015000606   F   F   F
 17.5583087964009543  3.5583336872050348 12.3136086081000542   F   F   F
 21.4330305635303233  5.5208240016505181 13.6796126015769826   T   T   T
 13.6603233166007954  6.5136318169050904  8.2243523073000517   F   F   F
 20.8680929305812342  7.0665867930154027 16.5536884562769586   T   T   T
 13.6977375624691806  7.5287169488626242 16.4967149354021458   T   T   T
 13.8930356268764577 16.7837321978946719 15.5418460402724001   T   T   T
  0.7978157390506740  7.1270431767779145 17.5202349115815537   T   T   T
 21.8958933816008461  8.6021166893050314 12.2077758528999212   F   F   F
 17.4680653944009308 10.6099092730050568 11.3579048886000145   F   F   F
 18.6761530549152468  7.9274826231523461 17.0622842190937938   T   T   T
 13.8384634655008458 11.3052362532051500 10.1628465652000166   F   F   F
 16.8194650296009520 12.7051010664051045 10.3087117032000393   F   F   F
 19.6924786748008209 10.8294408761050960 11.2801575466999218   F   F   F
  0.1115442520009150 11.9415693330051429  9.6182851782999332   F   F   F
 19.3929495406008918 13.9087840728050800 12.5798631537000798   F   F   F
 20.5565237806296146 11.8482930882895570 19.3799070350428906   T   T   T
 12.1736464269008984  0.7384156238050552 11.3367982008999686   F   F   F
  5.2229327515009496  0.6403810662050956 10.5706747175000295   F   F   F
  5.0655882168008928  5.3101626297051094  8.5819858889999878   F   F   F
  3.6873034891009135  6.9764968420050595  7.5000000000000000   F   F   F
  7.9960545455008551  3.8194054365050953  8.8922852950000415   F   F   F
  5.2140666485008831  1.8292083411051041  8.6762955942999476   F   F   F
 11.9829456348838779 15.9166995532377964 14.6982714560737300   T   T   T
  8.9736437046325008  5.4063046236827592 17.4056029753000487   T   T   T
  5.7230994679545040  2.6818858536596899 16.0883587066903679   T   T   T
  7.3834768291008199  9.8275153022051320 11.8941332716999124   F   F   F
  9.5741936939008738  8.9504183331050733 10.9063290237999357   F   F   F
  9.3293892661008275 15.3721996136050745 10.4518979467999813   F   F   F
  5.7170933234008388 12.8772037626050473  7.9124974079999815   F   F   F
  7.2982693212009124  8.5832975634051287  9.9268885897999795   F   F   F
  9.4926781684009356 11.5878700463051096  9.1086192438000104   F   F   F
  3.2625423097008355  9.8426860757051529  9.4610486483999399   F   F   F
 13.8892034133008124 13.6483901432050629  9.4736442360000641   F   F   F
 10.9800570678009102 16.6101312865051227 11.9316011073000059   F   F   F
  2.8528353797135422  6.8511169263991292 16.4408695574855557   T   T   T
  1.7116308835889158 13.0489202868177365 17.3595250096852958   T   T   T
  5.6884694252355779  7.9560850861229779 18.3464812857612678   T   T   T
  5.7192691083758840 15.7577918972994748 17.9827450406318050   T   T   T
 13.8979444658472602 10.1259880780432301 19.2812163661443634   T   T   T
 10.8971223058180584 10.8215430481922983 21.9752871609961957   T   T   T
 14.1083340331461287  8.4170203190583557 21.1472320618040079   T   T   T
 12.7117638216260591  7.4987713076855416 20.4879482978463336   T   T   T
 14.2624052643877466  7.5231924179813827 19.6192588374090171   T   T   T
 12.7267812079635654 10.5150806486900041 22.0598415669658827   T   T   T
 13.1517094689806413 12.7057093919180062 20.9619199584231310   T   T   T
 11.3207256466186053 13.0128927541800401 20.8637826495678276   T   T   T
  8.6374036184008549 12.7489963490051448 11.8017983751999189   F   F   F
  8.1194033520009068 10.1337171526050867 11.3014481090000363   F   F   F
 20.1504287274805627 11.2571270976410993 18.7285244366782067   T   T   T
  8.1739794940819177  0.1743860932539286 14.2786755263374996   T   T   T
  0.7831007677616386 17.8994999547889186 14.2086919388246233   T   T   T
 14.8979056635007971  2.4291956021050263 13.1560924437000111   F   F   F
  1.6070951581008681  1.9471140869051375 10.6219066880999105   F   F   F
 10.5795533154009078  3.3478295882051219 11.3070708689999098   F   F   F
 18.8667912287008797  4.8716055309051400 12.9891449910999359   F   F   F
 22.7819902535848264  4.2904355544671162 16.0974625197604979   T   T   T
  6.4326112163008107  6.4213824850050374 12.0575185301000349   F   F   F
 13.0249712842008787 15.0456129464050505 11.8757543678000772   F   F   F
  9.1996778952498115  0.4192995144755708 16.6652942979665291   T   T   T
  4.1559083981008360  7.3418611958050457 10.8951059422999119   F   F   F
 20.2907370674884504 13.3940079593607813 17.1303021684197923   T   T   T
 20.2670643255007938  0.4052054087051238 12.5555660742999340   F   F   F
  7.0479032018008052 14.7891166898051445 12.3105725114999398   F   F   F
  9.8704580526008066  5.7342133286050476 10.2048265390999404   F   F   F
 18.9883837402302120  9.4332587875108427 13.9811780512963093   T   T   T
 23.0256178332896440  2.3189052124706482 14.0126861007264853   T   T   T
 12.1813306685885809  9.2128778585248448 16.6933664072676393   T   T   T
  0.8085419779008778 17.6705913718051129 11.5438589107999157   F   F   F
 22.5459321896009008  6.4942740178050400  9.4429874702999967   F   F   F
  1.6300509618009076  7.0906522179050704 10.1181405465000296   F   F   F
  4.8764710014008719 14.2039359084050503 10.6286105082999160   F   F   F
  0.9107289262008486  8.5946451190050368 13.4177235483999091   F   F   F
  5.6066254498582415  6.1754122173224060 15.8041951110453116   T   T   T
  9.3074255202086960  4.5007944919011980 17.3160959739785483   T   T   T
 10.6716146041551543 11.1120273929102424 15.6849416988248986   T   T   T
 21.2993316078700055 14.5764724088073940 14.9868645774308025   T   T   T
 20.3473945900007998  2.9578790079051340 11.8899304633000895   F   F   F
 13.4047640163009412 13.0928786310050445 10.1116871976000038   F   F   F
  3.3343901332008223  3.8835508690050680 10.1073996205999119   F   F   F
  8.1913180280186033 14.8819964778517786 16.3119321501110583   T   T   T
 21.3275968970008236 16.3133072770051157 12.9894949103000119   F   F   F
  1.4360022335008527 10.7287793939050804 11.8892624465000090   F   F   F
 16.5831336511008374 11.0603046335050283 11.2898762290000771   F   F   F
  1.7672544183008791 15.8015496550051431 12.9845089027999609   F   F   F
 16.3987871122008606 15.9963332022051468 11.6306931007999363   F   F   F
 17.0945043099886220  1.8882384376082157 14.5975504379203365   T   T   T
 21.5137888595603854  6.4779649680788962 16.9886410798680139   T   T   T
 17.2065440613080476 16.4541364318565577 16.4751702023702897   T   T   T
 14.6349142322008845 10.5570316781051012 13.0754970996000566   F   F   F
 13.0301014607009051 12.4109980038050569 12.5612375163999488   F   F   F
  9.9827380894156335  5.4081616649467090 14.9084328406882332   T   T   T
 22.9030375865009113 14.1966754429050557 12.8178719415999129   F   F   F
 15.3170133516690878 11.7675811360705627 17.0362615360833161   T   T   T
  9.2987105475160501 14.4950055603585142 13.8665894765530666   T   T   T
 14.1097547443009290 10.3807383131051250 10.3681346438000581   F   F   F
 16.8399215494707875 12.4430140253509194 14.9781110753356046   T   T   T
  3.4359617035857033  7.5959310675746536 16.6647162709055507   T   T   T
  1.5498025061580247 10.9402717619187619 14.5687406531049177   T   T   T
 19.1715646483683670 17.0302205689798747 14.4272218485137298   T   T   T
 19.3895977768008123  7.4400183803050375 12.1486830014000038   F   F   F
 12.3448758576682120  6.4022174678757020 14.2967558136453849   T   T   T
 17.2496644279368638 10.0486350853314779 16.0042850741900438   T   T   T
 13.0502500955009282  4.1246649147050451 10.6164709512000286   F   F   F
 18.8686625802008301  5.6465129468051476 10.3042024350999810   F   F   F
  5.5589233312008997  0.1528457720050775 13.6545875645999075   F   F   F
 16.2226294417843491 15.0712180699933072 14.5479931774593183   T   T   T
 21.6285146692060017  0.0899546916180470 14.8658457751052424   T   T   T
 12.3081889923008738  6.7585869666051197 10.7145252788000924   F   F   F
 10.9925141832969508  0.7478289014953240 14.6961018880744199   T   T   T
 19.6122054554056682  2.7178728720688667 14.5111743719421149   T   T   T
 12.5930115208008129  3.1096289091050484 13.0716899635999635   F   F   F
  8.1984818481009238  4.3815810576050351 11.8189063057000023   F   F   F
  0.2753243820008937  0.3188933740051206  9.0124808017000539   F   F   F
 10.8462009432166226 11.5218242417056072 18.2214343982585554   T   T   T
 15.3335837515008873 17.7693474498050357 10.1949321416999528   F   F   F
  1.7861259274008561 13.4316443653050701 11.7179492835000634   F   F   F
 10.5399499568040795  8.2876474041464796 14.8383874599442951   T   T   T
 16.8378581096008446 13.6924922129051492 10.2044688954000726   F   F   F
 10.4660658032745406 13.6509477321508577 16.2201692010711014   T   T   T
 17.6181945428009605 13.8538387063050479 12.8044260507000995   F   F   F
 18.2273171893016261  3.1946832131903657 16.6869931743272772   T   T   T
 23.2538446387008619  6.5815851361051134 12.0545816254999565   F   F   F
 12.4044676912006864 10.1806126309173983 14.1310164444856383   T   T   T
 19.1218206664009358 10.0436159437050367 11.3835519988000051   F   F   F
  5.5220057321657761  3.6198361500578176 16.2712653328920922   T   T   T
  4.7649781801008766 16.0533353845050755 12.6495280121000526   F   F   F
  5.6183215396143540 11.1195695697073536 14.0533328477983588   T   T   T
  1.4340482736893618 12.3344209360447081 16.7672359503243769   T   T   T
  1.0786536776008642 11.9152671358050313  9.5215139521999852   F   F   F
 18.7456247515670853  0.6137393848092719 16.2865104737014512   T   T   T
 12.5950636769009137  1.5019128115051508 10.8743957286000921   F   F   F
 14.1499730280848297  6.6974291612997003 16.2624380815706004   T   T   T
 20.1699097310008888  1.0739500406050606  9.9255090622000601   F   F   F
  2.2219965916008966  3.7004781115050958 12.5567453559999347   F   F   F
  4.0146611715136977  4.6962422503346399 14.2724248624388164   T   T   T
 15.0063742318009474 13.7653009671050537 12.2269739889000402   F   F   F
 10.2257674730008681  8.4255117376051309 10.3880891216999718   F   F   F
 13.4528727490452802  2.0414605357159994 15.3471265623911837   T   T   T
  3.5453536892009190 11.7532874027051211 10.4565101703999730   F   F   F
  6.2681351004009134 11.9151011316051445 10.5465139547000728   F   F   F
 10.3070205059007964  6.8386296070050623 12.6439041021000076   F   F   F
  5.5721144047009572  3.8724177345050448 11.5571911627000716   F   F   F
  1.7033169437210280  3.7227274800534076 15.1234695911116930   T   T   T
 19.7819543356585719 10.8609923787379294 16.1201564300867943   T   T   T
 14.5426145955008295  6.0728568360050756 11.0465218440000079   F   F   F
 14.1092145248008851 17.1555659600051413 12.5605395037000616   F   F   F
  0.7347726398008561  4.5388932677051130 10.4574111511999082   F   F   F
 14.2215009286756011  4.5409786871193569 14.7259401866288968   T   T   T
  3.1090135153009406 18.0041468588051075 12.8902268328999181   F   F   F
  1.8789531230600724  6.0806693929376676 13.7532429686797446   T   T   T
  8.7297914509366752  2.8260862161341804 15.3108034920878158   T   T   T
  1.5598934334951942 13.6306799800093774 14.4019006733612223   T   T   T
 15.6033558153009473  8.5272877930050939 11.5601582653000445   F   F   F
 18.7142285035028735 14.2191120209653477 15.1667556350255008   T   T   T
 16.4777718433008111  0.2245638809050403 12.6401439110000684   F   F   F
 13.9543775946434234 12.4120364195062187 14.8941728172221701   T   T   T
 16.9226272056008540  6.3219292062051160 12.1423592131999118   F   F   F
 22.8855654426924069  6.6940404609312267 14.7105397111824949   T   T   T
  3.7065192956036457 12.4119908257577247 15.3356926470021389   T   T   T
 14.8271652181008076  6.9217136117051110 13.6513923934000658   F   F   F
 19.1868117583024933  8.1819042488297278 16.2771152304483024   T   T   T
 22.4415565882009282  1.4936776629050610 11.2091004411000323   F   F   F
  6.6056142472247590  4.5326568958279791 13.9433396405218843   T   T   T
  5.8354419274008071  9.0283039621051149 12.3947292443000965   F   F   F
  6.3345730638955073 16.3656851982080447 15.2703592183109098   T   T   T
  4.7681350434008749 13.4234338517050791 13.0892078511999745   F   F   F
  3.4443505106009185  9.6269750412050819 13.2412657434999570   F   F   F
  5.2560839519500258  8.6577806853792723 14.9705811798189146   T   T   T
 21.3374513779008055  9.2042921428050981 12.7351565119000814   F   F   F
 20.3628672267008071 13.7675007099050912 12.4780092183000697   F   F   F
 17.2803496319008367  2.6822781204051274 11.9692717873999719   F   F   F
  5.2016018852008630 17.8487852540050902 10.9669837839000888   F   F   F
  5.8990671953619156  8.2820817138580516 17.4589949647253242   T   T   T
 14.7612538928872254 17.0058908347186453 15.9540380369603874   T   T   T
  9.6038577149009363 15.2987865756051349 11.3834224176999435   F   F   F
 21.4862155100009211  4.5524563717051443 13.6633405327999533   F   F   F
  3.1030982324009049  9.0374230159051478  8.9326077583000263   F   F   F
  3.6322080630008546  6.5002168286050672  8.3489094906999988   F   F   F
  8.7325333415007975  3.3721975502051267  9.3541593199999618   F   F   F
  0.8092355837176071  6.2899276696177298 17.0285797156969636   T   T   T
 13.4073969957009069  5.6547693620051325  8.6053569674000610   F   F   F
  5.7234796250976041 14.9358351528537554 17.4676408274825796   T   T   T
  4.8549008030008771 12.7499015468050558  8.3437652246000233   F   F   F
  6.4468714782009240  8.1069914610051477  9.8762990118000236   F   F   F
  8.5533355018009392 11.8290089614051332  9.2000470400999959   F   F   F
  5.2998687753008751  2.0180660253050284  9.6274411709000614   F   F   F
  5.6468823338009386  4.5531800245050622  8.8538476833000335   F   F   F
 11.7354481473009002 17.1696091228051486 12.2276756726999256   F   F   F
 12.8921153782131341 15.9939032987963028 14.3631378262659286   T   T   T
 12.7605210725598130 12.7422659258850892 17.0773856265479473   T   T   T
 11.2061077447223596  3.1525556728900188 16.0267584039933411   T   T   T
  6.1544277884962622 13.5557498669520449 15.2874111059666529   T   T   T
 10.4116058351664211 16.2660103752657186 15.6747673600555117   T   T   T
 17.9246741105341449 12.1764626120310897 17.4580428686253164   T   T   T
 19.7768403110388284 16.0702390199753928 16.7492442727111523   T   T   T
 14.9752553590250876 14.3928886270538978 16.6675167073748334   T   T   T
  0.1906916163055336  1.6066179162742982 16.2101494169412241   T   T   T
  6.6754303349677899  0.9873865944339413 15.9708660867657759   T   T   T
 11.8174577875575988  0.4415822605822664 16.9123708627416605   T   T   T
 10.4657709678062236  8.4476038605557413 19.0628776174622807   T   T   T
  1.9484115305008411 11.9890859623050758 10.9257518829000855   F   F   F
  9.5789949952713922 14.8075735395450589 15.4776498919665872   T   T   T
 19.7067807456009270  8.9996765028050980 12.5770864872000807   F   F   F
  0.4000871711008249  0.8275227713050509 10.5815982962000863   F   F   F
  0.3441508684008761  6.1498792887051295 10.5135849760999207   F   F   F
  0.2162459574464917  3.0855977255322613 15.3907894663205020   T   T   T
 14.2608691015436495 12.9028087985979525 16.4220314982530482   T   T   T
  5.0092028197192997  9.6196050240445548 13.7037949168728375   T   T   T
 21.4227890472008191 14.6916987777051222 13.3409927832000612   F   F   F
 12.1874176185009180  3.0015925724051375 11.4519535752999726   F   F   F
  9.8068688271191551  4.0142375131224224 15.8342474061087692   T   T   T
  1.9537317217008121  3.5219701848050304 10.9410159377999516   F   F   F
 16.4323393213009439  1.8126696034051424 13.1008835612999182   F   F   F
 15.5699004752009156 17.2735496662050494 11.7608393706999959   F   F   F
 15.2196532121008854 10.1335937303050425 11.5639039518999880   F   F   F
  4.6462206858009427 17.5353067284050717 12.4736318016000087   F   F   F
  5.0183093155064169  7.6382692746920586 16.2268066093637380   T   T   T
 15.7687092632891481 15.7411092824579200 15.9775599579564531   T   T   T
  5.0731445847280012 12.6191055293760801 14.4736328408954549   T   T   T
  8.6338306944008796 14.3214238442051141 12.3450918403999772   F   F   F
 18.6680902318088222 17.0996448953640652 16.0130847640611051   T   T   T
 20.5975805800290388 17.5316824874808290 13.7639490773942139   T   T   T
 13.4617285766475963 11.3828717586811656 13.7387482904691733   T   T   T
 13.8082280337885681  3.0898621529258592 14.1221637991859055   T   T   T
 20.0897549290008932  3.7564799262051078 13.3119964777000686   F   F   F
 19.5617445343965706 11.9373460677103118 17.3604178003399916   T   T   T
  3.1309919091008926  7.5294242301050378  9.5939282762999341   F   F   F
 18.5102638787008651  6.0728454016051385 11.8790245131999104   F   F   F
  9.3452291980009399  4.2164261240051140 10.6458991149000965   F   F   F
 20.0408644862379504 14.5920555931527751 16.0366440121912106   T   T   T
  6.6179257817198129 17.9023055677139951 14.7744267195795782   T   T   T
  0.5402093556008346  6.9881177112050494 13.5020501238999753   F   F   F
 13.4511790210007991 13.6031405539050958 11.7094363382999234   F   F   F
  5.3902388079008787 14.6380519273050318 12.1504629159999400   F   F   F
 13.8939187171479528  6.1484311705871351 14.7390771973340939   T   T   T
 22.8301338743739919  5.9358558433716127 16.1996728799205343   T   T   T
 20.8104486399008515  1.4604424889051284 11.4039290978000931   F   F   F
  2.4518948831222023  4.5418730799461198 13.9188696451244756   T   T   T
  1.1271522508009479 14.2835388635050826 12.9747243974000472   F   F   F
  5.4320329966226382  4.7235180684806757 15.0832614048626041   T   T   T
 13.1432835601008247  5.6713879546050405 10.2486411673999296   F   F   F
 11.1821404189406248 12.2815757531659546 16.7821676375877047   T   T   T
  6.5731505777357793 14.9432150979166547 16.0668250057802560   T   T   T
  4.8812742446009318 12.6592010359051361  9.9950887575000422   F   F   F
 17.3339749443659912 13.8815865119419399 14.4040908036481952   T   T   T
 23.0966872577272824  0.8303740016522775 14.7956482452531723   T   T   T
 16.4605879349008077 14.3520563427050849 11.6743814448999963   F   F   F
 18.4458820912833730  2.0766505528037800 15.5054410789616810   T   T   T
 10.6828990944009163  6.9519491797050952 11.0030363954999544   F   F   F
 10.5629651557245428 17.8878172345110755 16.0006981935949142   T   T   T
 11.9248649773908610  1.6891469232614211 15.7583953644498909   T   T   T
  5.7181420223008752  7.7122207625050914 11.3164752744000499   F   F   F
 15.4169308204009194  6.9800464443050512 12.1068679175000042   F   F   F
 10.7641657926593162  6.7232205535872129 14.2114087351107088   T   T   T
  7.8966148677008290 11.6904885862051220 10.7286948165000311   F   F   F
 18.8035651095246905  9.6342593050842069 15.5839533294174295   T   T   T
  1.6202907684008718 17.2884397456050998 12.9176056502999650   F   F   F
  4.9610307558008699  3.6176909843051250 10.0435341450000184   F   F   F
  1.8315324538007995  9.9516191451051093 13.2988686007999846   F   F   F
 13.0534399515009536 16.4454568896051256 12.7623473945000239   F   F   F
 16.8170986324673422 11.5966198815925097 16.3872815628347759   T   T   T
  6.7106632140008706  4.8073033873050424 12.3424431752000618   F   F   F
  2.0637062469331195 12.3348497116761298 15.2584313592669094   T   T   T
  8.2943208907287325  1.2710621782372611 15.5656079620233889   T   T   T
 11.3920750336231063  9.6479031516363882 15.3009394538343635   T   T   T
 11.5147303273522610  9.6831063015926482 18.4804897146315206   T   T   T
