 C  H  O Si  W                          
   1.0000000000000000     
    23.4112945954000011    0.0000000000000000    0.0000000000000000
     0.0000000000000000   18.1212369513999967    0.0000000000000000
     0.0000000000000000    0.0000000000000000   26.8833665072999999
   C    H    O    Si   W 
     4    52   155    65     1
Selective dynamics
Direct
  0.5156470058807514  0.5303651342404052  0.7519809504849135   T   T   T
  0.5302666370603788  0.3545464522381252  0.7360436577632257   T   T   T
  0.5728864606183635  0.5680171495371127  0.7443364111085629   T   T   T
  0.5397181438158611  0.2744006438095141  0.7450732879593005   T   T   T
  0.7670912002895989  0.0995834696937195  0.6531865775775998   T   T   T
  0.9264276758775409  0.2786689628389283  0.3563349293400009   F   F   F
  0.7933396966928186  0.2072788972396751  0.3734565163880745   F   F   F
  0.9745391127316694  0.9436086005532900  0.3253027906056829   F   F   F
  0.6257326647787878  0.9634728499897562  0.3752311999972449   F   F   F
  0.8205383986272707  0.9950066635937915  0.3689926296547128   F   F   F
  0.7499930738495308  0.1411787558468731  0.4580381926778543   F   F   F
  0.9154034912388980  0.2494144060593300  0.5100262809330687   T   T   T
  0.5834928632816769  0.3042635462298904  0.3059271726651787   F   F   F
  0.8924179679101201  0.3350958888688496  0.6160309132641331   T   T   T
  0.5945645087457265  0.3634554157457828  0.6115518193996508   T   T   T
  0.5938813445358164  0.8709652675176613  0.5779692610557632   T   T   T
  0.0336272576810970  0.3375487414421059  0.6529348306450018   T   T   T
  0.9352705076763712  0.4195142257503406  0.4541014552468710   F   F   F
  0.7461383787735159  0.5303119924306614  0.4224881911837883   F   F   F
  0.8019241279919171  0.3851332205154634  0.6368582344128555   T   T   T
  0.5911020174091490  0.5686828267211084  0.3780347436188976   F   F   F
  0.7184337867802384  0.6459327858135424  0.3834605945055571   F   F   F
  0.8411529142292764  0.5424265960688572  0.4195961671555111   F   F   F
  0.0047645486475076  0.6037981492295330  0.3577783004107076   F   F   F
  0.8283586993267491  0.7123566734117333  0.4679422553080954   F   F   F
  0.8804171628293957  0.5986653008425691  0.7198420143998305   T   T   T
  0.5199903139612303  0.9855647615614487  0.4217030704774842   F   F   F
  0.2230945721612159  0.9801548351936802  0.3932050219465495   F   F   F
  0.2163736907482345  0.2378514580028224  0.3192303272980936   F   F   F
  0.1575010503616241  0.3298062300070157  0.2789829167401123   F   F   F
  0.3415468765692253  0.1555857055490506  0.3307727584112428   F   F   F
  0.2227158616647102  0.0457589260230407  0.3227384335196248   F   F   F
  0.5114236360091198  0.8265772699338072  0.5470644628192503   T   T   T
  0.3728786067069407  0.2379814971481480  0.6481295611588180   T   T   T
  0.2431633855332365  0.0941443324903091  0.5987621093094688   T   T   T
  0.3153809713091036  0.4871364645735810  0.4424346656312608   F   F   F
  0.4089561837294582  0.4387348586869422  0.4056905975982730   F   F   F
  0.3984995032241372  0.7931136076499854  0.3887867966224334   F   F   F
  0.2442023571188656  0.6554300787776768  0.2943268807443218   F   F   F
  0.3117413815567005  0.4184757135367221  0.3692576443915385   F   F   F
  0.4054742948844066  0.5842796534641153  0.3388198885480591   F   F   F
  0.1393576205880507  0.4879736465794622  0.3519294596467617   F   F   F
  0.5932693451318087  0.6979871284243586  0.3523979868156601   F   F   F
  0.4690068301459220  0.8614274692379169  0.4438283837725479   F   F   F
  0.1238049763200380  0.3257871209013317  0.6146385606669682   T   T   T
  0.0757082822976827  0.6626134793875806  0.6466901994078711   T   T   T
  0.2463692399845385  0.3933739481784713  0.6821651410049796   T   T   T
  0.2490460761173452  0.8154473853509074  0.6703502837395092   T   T   T
  0.4994040446786769  0.5300124865844680  0.7903016525806095   T   T   T
  0.5591458193576457  0.3950996623988203  0.7540869692663037   T   T   T
  0.6023880904028402  0.5576985418490565  0.7755406305995862   T   T   T
  0.5942838312628993  0.5517224565268748  0.7096314793216578   T   T   T
  0.5661486827139584  0.6283422945293538  0.7420091593855389   T   T   T
  0.5512374930482125  0.2659728785628630  0.7844040892844788   T   T   T
  0.5023780507067599  0.2414660481926205  0.7343270686328651   T   T   T
  0.5770273434313395  0.2569139702219587  0.7227222162077780   T   T   T
  0.3689417337945073  0.6483550974205130  0.4390000177989322   F   F   F
  0.3468156499810249  0.5040338679473777  0.4203881275781143   F   F   F
  0.8608003842798553  0.5664431415789650  0.6967145406568278   T   T   T
  0.3486366277599160  0.9615210093424054  0.5303256389925508   T   T   T
  0.0332094322811898  0.9322800626034464  0.5285285567960258   T   T   T
  0.6363554822990451  0.0788685455599989  0.4893766723794641   F   F   F
  0.0686461464807948  0.0522654214745515  0.3951107345583225   F   F   F
  0.4518995424319527  0.1295623248292515  0.4205972814427668   F   F   F
  0.8058841492861291  0.2136501796918466  0.4831666074103040   F   F   F
  0.9738771802804465  0.1818069315222957  0.5986031106272236   T   T   T
  0.2747652928840907  0.2991728710101214  0.4485122250900346   F   F   F
  0.5563541661963498  0.7750912911781072  0.4417510122690658   F   F   F
  0.3911035263157601  0.9749887364123566  0.6196865704710603   T   T   T
  0.1775172398589788  0.3499684493290118  0.4052731245300478   F   F   F
  0.8666172030436954  0.6843519935509406  0.6374658363544086   T   T   T
  0.8656960102276017  0.9671769320775354  0.4670384592975196   F   F   F
  0.3010471365896024  0.7609368348742791  0.4579252567998537   F   F   F
  0.4216109456219570  0.2612522170148708  0.3795963030273342   F   F   F
  0.8111848641259130  0.4650784024844299  0.5202126920606887   T   T   T
  0.9836708913435075  0.0726427903068512  0.5211036825090503   T   T   T
  0.5044475088471998  0.4697691799724808  0.6325199143665259   T   T   T
  0.0345364061182565  0.9199477616519545  0.4294052572495062   F   F   F
  0.9630365419446250  0.3031953079439518  0.3512576249606170   F   F   F
  0.0696266904488567  0.3361057655302346  0.3763717815531962   F   F   F
  0.2082956575310035  0.7286442941956537  0.3953601014000157   F   F   F
  0.0389012629134911  0.4191019155796809  0.4991087535393461   F   F   F
  0.2400984948240108  0.2866741672792585  0.5879988273487484   T   T   T
  0.3996426156868722  0.1971927283873072  0.6459755127919706   T   T   T
  0.4540200692310137  0.5670924683257468  0.5769406359729032   T   T   T
  0.9101741969322532  0.7490569571077828  0.5575030222338100   T   T   T
  0.8691272713299156  0.1080433423588048  0.4422783307318099   F   F   F
  0.5725767945756743  0.6673318528661909  0.3761317316733468   F   F   F
  0.1424265590957958  0.1591254988132746  0.3759722435750490   F   F   F
  0.3511628667668987  0.7656912163313550  0.6066860820466999   T   T   T
  0.9109960497951874  0.8450475714254182  0.4831796236075121   F   F   F
  0.0613380104910135  0.5368717058331640  0.4422534820284341   F   F   F
  0.7083390277084121  0.5551665518466606  0.4199576800001736   F   F   F
  0.0754872572765848  0.8168068048942771  0.4829941554854784   F   F   F
  0.7004647711973604  0.8275557150113073  0.4326352913293690   F   F   F
  0.7302727576044177  0.0493656452032312  0.5429722006414792   T   T   T
  0.9194417899312413  0.3019492888362905  0.6322812227011667   T   T   T
  0.7352390966128226  0.8520571354820703  0.6130657583508707   T   T   T
  0.6251219543867705  0.5273940020615839  0.4863787091564404   F   F   F
  0.5565732987385132  0.6297030403834256  0.4672494240254110   F   F   F
  0.4257977411179112  0.2491639166777233  0.5561334540531675   T   T   T
  0.9782900938336425  0.7282436336050182  0.4767956400891720   F   F   F
  0.6540664924464323  0.5941119451952588  0.6330645429816926   T   T   T
  0.3962316605137914  0.7480256924008586  0.5150044363675832   T   T   T
  0.6026900685395375  0.5176654517715136  0.3856709925442061   F   F   F
  0.7210005511805946  0.6300079922260053  0.5569221458007334   T   T   T
  0.1495733820532834  0.3658468448243184  0.6233122439542953   T   T   T
  0.0663159371245143  0.5483688568900149  0.5420707027612437   T   T   T
  0.8187554755461193  0.8842140912787642  0.5364409045642944   T   T   T
  0.8282155306614527  0.3553851427237973  0.4519033357708793   F   F   F
  0.5275810882006837  0.2978610311476118  0.5315839130767017   T   T   T
  0.7370904332032922  0.4985503904063933  0.5958945988667139   T   T   T
  0.5574339360995921  0.1724311051770471  0.3949085375269945   F   F   F
  0.8059640829904495  0.2564125704700402  0.3832928600033014   F   F   F
  0.2374462167629616  0.9532507504721153  0.5079195554207132   F   F   F
  0.6926655189921718  0.7750221544214071  0.5419436263485267   T   T   T
  0.9234897431060958  0.9499874817357252  0.5529031837243181   T   T   T
  0.5257372223541736  0.3177811195808147  0.3985559351687087   F   F   F
  0.4672990649760393  0.9934548321719632  0.5462244479199754   T   T   T
  0.8376413573421289  0.0948094313264178  0.5397084855353071   T   T   T
  0.5379032530424510  0.1164174893117362  0.4862370923690094   F   F   F
  0.3501934425152129  0.1866087324322407  0.4396363938456389   F   F   F
  0.0117603228167908  0.9624138998997935  0.3352437574830063   F   F   F
  0.4489525770818688  0.5974978158537922  0.6717268261649139   T   T   T
  0.6549652215522386  0.9253975043083074  0.3792282539811964   F   F   F
  0.0762933429470323  0.6860262574042792  0.4358810225764742   F   F   F
  0.4546982359910743  0.4061491420755345  0.5530406043026730   T   T   T
  0.7192194366265099  0.7004208513439565  0.3795829994963285   F   F   F
  0.4534215381366025  0.7084700992935353  0.5979286184141230   T   T   T
  0.7525510591055777  0.7093245754016806  0.4762954835743187   F   F   F
  0.7791123361988852  0.1197147963289709  0.6214851792530567   T   T   T
  0.9932746155468877  0.3080134734220721  0.4484029789284989   F   F   F
  0.5379283522839202  0.5082723567521299  0.5361182260225874   T   T   T
  0.8167775852155614  0.4990617344698620  0.4234422052650615   F   F   F
  0.2362732900846893  0.1463546784990157  0.6056622187089147   T   T   T
  0.2035333057163413  0.8307013160788728  0.4705336293601903   F   F   F
  0.2398143754164224  0.5591310036210828  0.5228501539181067   T   T   T
  0.0613447966812828  0.6255359513992715  0.6239247417901268   T   T   T
  0.0460740722049948  0.6023466921755443  0.3541786312221902   F   F   F
  0.8007438633981252  0.9781395240926898  0.6055034100870813   T   T   T
  0.5379909097114037  0.0276974917800175  0.4045027517534763   F   F   F
  0.6050565941884187  0.3124656139487598  0.6051113790409417   T   T   T
  0.8615461075340960  0.0040808494918636  0.3692063291070653   F   F   F
  0.0949113079819810  0.1490228354028815  0.4670823258906296   F   F   F
  0.1714822843726367  0.2047354668419885  0.5310635925812122   T   T   T
  0.6409886548841044  0.7044387202342079  0.4548155821771758   F   F   F
  0.4367877834064799  0.4097684809000555  0.3864132536704119   F   F   F
  0.5738513157369241  0.0589972672611765  0.5712353834731800   T   T   T
  0.1514377462021059  0.5934080234999826  0.3889583608347777   F   F   F
  0.2677397900769023  0.6023375314212132  0.3923062966030031   F   F   F
  0.4402584600309112  0.3221981823130449  0.4703244327181508   F   F   F
  0.2380096658898907  0.1585111293566044  0.4299011866524154   F   F   F
  0.0732104467125154  0.1494083794976717  0.5624300732880414   T   T   T
  0.8448948779632772  0.5448451995647829  0.5995343352635416   T   T   T
  0.6211794284267498  0.2799398765994923  0.4109054511829981   F   F   F
  0.6026669933739228  0.8915266658304475  0.4672234595428861   F   F   F
  0.0313853912181870  0.1952898291212790  0.3889918752683101   F   F   F
  0.6077506184011341  0.1953085743171172  0.5476941917548288   T   T   T
  0.1327997263300347  0.9383546445758171  0.4794870772378772   F   F   F
  0.0800283062460849  0.2801957933323678  0.5119880836486246   T   T   T
  0.3721161244822611  0.1075182372613099  0.5696198372501300   T   T   T
  0.0662498670851406  0.6964202781105726  0.5355737587967866   T   T   T
  0.6664883802866157  0.4153848775992941  0.4300115561107631   F   F   F
  0.7996557928395234  0.7296021354934581  0.5640143824778150   T   T   T
  0.7038385586134339  0.9572084333329656  0.4701845621740759   F   F   F
  0.6002171806011845  0.6367806186603033  0.5522143738255565   T   T   T
  0.7228402998664549  0.2936846541148483  0.4516681052539582   F   F   F
  0.9773867750276821  0.3144335268062832  0.5472141028218900   T   T   T
  0.1583338695842755  0.6303011218560997  0.5707041654082730   T   T   T
  0.6333338448107071  0.3267830793000925  0.5078007023299378   F   F   F
  0.8209824492519147  0.3968200352692719  0.6057840756500070   T   T   T
  0.9585781980894978  0.0272430444030434  0.4169530046787955   F   F   F
  0.2819566625950785  0.1952490195002596  0.5186360813440984   T   T   T
  0.2492575497532457  0.4430328891806070  0.4610556955705079   F   F   F
  0.2739288726170983  0.8507615152150123  0.5684242952463379   T   T   T
  0.2036681493187373  0.6855731694819696  0.4868887178860462   F   F   F
  0.1471234534495878  0.4760698767055516  0.4925449251270066   F   F   F
  0.2243335035120992  0.4227312513209753  0.5565681402866645   T   T   T
  0.9114169782859136  0.4527445982196738  0.4737188145108959   F   F   F
  0.8697881761182842  0.7045601105568409  0.4641535209108483   F   F   F
  0.7381202078118392  0.0928346185702935  0.4452296472671975   F   F   F
  0.2221834364607460  0.9297811898377830  0.4079468165165281   F   F   F
  0.2565687866422977  0.4039238617848113  0.6479891117652699   T   T   T
  0.6309401042405511  0.8830029738515464  0.5934924037650902   T   T   T
  0.4102232653459481  0.7890623920405417  0.4234373851432949   F   F   F
  0.9177713527308597  0.1960382937010650  0.5082451459005242   F   F   F
  0.1325470584190001  0.4435361138679994  0.3322726622007863   F   F   F
  0.1551476808853849  0.3035232552477680  0.3105604161752922   F   F   F
  0.3730051452693530  0.1309070432977180  0.3479534200993726   F   F   F
  0.0352566232498575  0.2928018778937727  0.6331094053318580   T   T   T
  0.5726892607782261  0.2568681914203168  0.3200996781806822   F   F   F
  0.2457499716647220  0.7717115554952798  0.6497415811316998   T   T   T
  0.2073742988973706  0.6484050497390186  0.3103690611938177   F   F   F
  0.2753744117793318  0.3921912990854679  0.3673758273212613   F   F   F
  0.3653508124869589  0.5975866322176486  0.3422207943191111   F   F   F
  0.2263808502218509  0.0561808240814585  0.3581188824802055   F   F   F
  0.2412033350308818  0.1960782276637332  0.3293429668079639   F   F   F
  0.5012729261715734  0.8923016219130631  0.4548416832162587   F   F   F
  0.5502852841884547  0.8283672654446406  0.5344258455100857   T   T   T
  0.5443552158874638  0.6455029322395305  0.6330422260123427   T   T   T
  0.4784827428619138  0.1240330219817096  0.5967059596227600   T   T   T
  0.2622973593129458  0.6955059719354821  0.5685288938481818   T   T   T
  0.4416241768213780  0.8500360677518515  0.5805548979027577   T   T   T
  0.7654960843322343  0.6166960005696822  0.6495999118962459   T   T   T
  0.8452000552793493  0.8317351189695756  0.6227694200826335   T   T   T
  0.6398153959067514  0.7394725663348183  0.6219400459625035   T   T   T
  0.0079118848583377  0.0332483486603934  0.6029111737556292   T   T   T
  0.2838501635733834  0.0036360291657189  0.5934920341164442   T   T   T
  0.5025402757009587  0.9733090624091716  0.6285003311541288   T   T   T
  0.4912020807108490  0.3782485823242467  0.7092172175199707   T   T   T
  0.4046594776154393  0.4746886674332416  0.7273828357487062   T   T   T
  0.0832252792583148  0.6064203007651798  0.4064130837160320   F   F   F
  0.4094509813921974  0.7674002079004154  0.5740460204751088   T   T   T
  0.8417638189676637  0.4414531151631493  0.4678389696388976   F   F   F
  0.0170894936830805  0.9904820388830231  0.3936113541928137   F   F   F
  0.0147002066459194  0.2841902736836772  0.3910814136036507   F   F   F
  0.0095257506105852  0.1147958959531934  0.5723804415511182   T   T   T
  0.6089380861417979  0.6577144047310028  0.6107891584550771   T   T   T
  0.2140128586775560  0.4762148858233672  0.5096998610023604   T   T   T
  0.9150621278077509  0.7555609373921541  0.4962545438487922   F   F   F
  0.5205785424995497  0.1104556260576075  0.4259865881079392   F   F   F
  0.4188312931882621  0.1717453941792968  0.5897449603850049   T   T   T
  0.0834525281692322  0.1391720770259113  0.4069808717903314   F   F   F
  0.7018979345349692  0.0448462544573900  0.4873230277072054   F   F   F
  0.6650593546526977  0.8980374634385981  0.4374764361266443   F   F   F
  0.6500987440092842  0.5040270570271090  0.4301508871204760   F   F   F
  0.1984606475676856  0.9124822313593555  0.4639906909803457   F   F   F
  0.2162306385077457  0.3678884015722517  0.6042873246822964   T   T   T
  0.6735420929548255  0.8127314665535295  0.5950498152190207   T   T   T
  0.2167769561206185  0.6421348748423270  0.5386990962470861   T   T   T
  0.3687891183983183  0.7351277332740764  0.4592092972079129   F   F   F
  0.7973781563157942  0.8878659791304173  0.5955062964027533   T   T   T
  0.8796269867133333  0.9121398279180468  0.5119404172156337   T   T   T
  0.5772864667953854  0.5754787195288742  0.5127342700529596   T   T   T
  0.5898256748792292  0.1154092401433573  0.5251924929730407   T   T   T
  0.8581223412116756  0.1521132323139867  0.4951759473310489   F   F   F
  0.8354363770776985  0.6039787390920779  0.6458759595321553   T   T   T
  0.1337385207956885  0.3603189035945249  0.3568722791356791   F   F   F
  0.7906552883383853  0.2799392456050427  0.4418726542293072   F   F   F
  0.3991760968159852  0.1774948439022879  0.3960031981861079   F   F   F
  0.8562883267375270  0.7500478335311058  0.5964330616494351   T   T   T
  0.2832713461986032  0.9359148382347158  0.5495636726061974   T   T   T
  0.0230747323006639  0.3304475145523895  0.5022455100715746   F   F   F
  0.5745593848382811  0.6954900809313358  0.4355643604055430   F   F   F
  0.2302409542512009  0.7526004965268882  0.4519695445397645   F   F   F
  0.5935425851310754  0.2836748728216421  0.5478555144905926   T   T   T
  0.9757507724214989  0.2725534967219545  0.6026213595720051   T   T   T
  0.8889063590695159  0.0254089988525621  0.4242001869335610   F   F   F
  0.1048237109965129  0.1954056230333094  0.5178182036116823   T   T   T
  0.0481456608991806  0.7330370933910686  0.4826301941714348   F   F   F
  0.2320768179843071  0.2067163207295906  0.5611489168960091   T   T   T
  0.5614078070968063  0.2577852696884548  0.3812261074005363   F   F   F
  0.4752830589281061  0.6288745528972015  0.6199787459800419   T   T   T
  0.2820781802317995  0.7712756716586995  0.5976719737294403   T   T   T
  0.2085008253050660  0.6433998444573277  0.3717945352858223   F   F   F
  0.7406241306175261  0.7101576648047541  0.5359156433495400   T   T   T
  0.9863358321327453  0.9904737925001257  0.5502681826306315   T   T   T
  0.7031045578374417  0.7368181531158413  0.4342603982179796   F   F   F
  0.7880729577131547  0.0590199234159385  0.5767622820579277   T   T   T
  0.4563138980148480  0.3284515949804003  0.4092878915485585   F   F   F
  0.4485808753680658  0.9382369724631516  0.5941084723957744   T   T   T
  0.5080348001306234  0.0426369301586291  0.5862196825417030   T   T   T
  0.2442471516899545  0.3704063238346720  0.4209471039025985   F   F   F
  0.6585253437214931  0.3300021108019919  0.4503479098948588   F   F   F
  0.4606630359678547  0.3200336942924196  0.5290678327044773   T   T   T
  0.3372993678552234  0.5899425417192177  0.3990830096962270   F   F   F
  0.8035799383432263  0.4766196083557475  0.5798395652095678   T   T   T
  0.0692097893945274  0.8988591556575116  0.4805055068825652   F   F   F
  0.2119075788647606  0.1444543212654636  0.3735965933534686   F   F   F
  0.0782328566383796  0.4939849950151185  0.4946876202126234   F   F   F
  0.5575701889662170  0.8523400985831628  0.4747302534090920   F   F   F
  0.7184129450046299  0.5843449585595195  0.6096152313538141   T   T   T
  0.2866421242385897  0.2101017385025088  0.4591107728955208   F   F   F
  0.0881884965708863  0.6254231964942889  0.5677501589266924   T   T   T
  0.3527783487639482  0.0217296687653032  0.5784662027431651   T   T   T
  0.4859961223493769  0.4842460018299519  0.5742127183317862   T   T   T
  0.4675803715706905  0.4982287049636369  0.6983421634486788   T   T   T

  0.00000000E+00  0.00000000E+00  0.00000000E+00
  0.00000000E+00  0.00000000E+00  0.00000000E+00
  0.00000000E+00  0.00000000E+00  0.00000000E+00
  0.00000000E+00  0.00000000E+00  0.00000000E+00
  0.00000000E+00  0.00000000E+00  0.00000000E+00
  0.00000000E+00  0.00000000E+00  0.00000000E+00
  0.00000000E+00  0.00000000E+00  0.00000000E+00
  0.00000000E+00  0.00000000E+00  0.00000000E+00
  0.00000000E+00  0.00000000E+00  0.00000000E+00
  0.00000000E+00  0.00000000E+00  0.00000000E+00
  0.00000000E+00  0.00000000E+00  0.00000000E+00
  0.00000000E+00  0.00000000E+00  0.00000000E+00
  0.00000000E+00  0.00000000E+00  0.00000000E+00
  0.00000000E+00  0.00000000E+00  0.00000000E+00
  0.00000000E+00  0.00000000E+00  0.00000000E+00
  0.00000000E+00  0.00000000E+00  0.00000000E+00
  0.00000000E+00  0.00000000E+00  0.00000000E+00
  0.00000000E+00  0.00000000E+00  0.00000000E+00
  0.00000000E+00  0.00000000E+00  0.00000000E+00
  0.00000000E+00  0.00000000E+00  0.00000000E+00
  0.00000000E+00  0.00000000E+00  0.00000000E+00
  0.00000000E+00  0.00000000E+00  0.00000000E+00
  0.00000000E+00  0.00000000E+00  0.00000000E+00
  0.00000000E+00  0.00000000E+00  0.00000000E+00
  0.00000000E+00  0.00000000E+00  0.00000000E+00
  0.00000000E+00  0.00000000E+00  0.00000000E+00
  0.00000000E+00  0.00000000E+00  0.00000000E+00
  0.00000000E+00  0.00000000E+00  0.00000000E+00
  0.00000000E+00  0.00000000E+00  0.00000000E+00
  0.00000000E+00  0.00000000E+00  0.00000000E+00
  0.00000000E+00  0.00000000E+00  0.00000000E+00
  0.00000000E+00  0.00000000E+00  0.00000000E+00
  0.00000000E+00  0.00000000E+00  0.00000000E+00
  0.00000000E+00  0.00000000E+00  0.00000000E+00
  0.00000000E+00  0.00000000E+00  0.00000000E+00
  0.00000000E+00  0.00000000E+00  0.00000000E+00
  0.00000000E+00  0.00000000E+00  0.00000000E+00
  0.00000000E+00  0.00000000E+00  0.00000000E+00
  0.00000000E+00  0.00000000E+00  0.00000000E+00
  0.00000000E+00  0.00000000E+00  0.00000000E+00
  0.00000000E+00  0.00000000E+00  0.00000000E+00
  0.00000000E+00  0.00000000E+00  0.00000000E+00
  0.00000000E+00  0.00000000E+00  0.00000000E+00
  0.00000000E+00  0.00000000E+00  0.00000000E+00
  0.00000000E+00  0.00000000E+00  0.00000000E+00
  0.00000000E+00  0.00000000E+00  0.00000000E+00
  0.00000000E+00  0.00000000E+00  0.00000000E+00
  0.00000000E+00  0.00000000E+00  0.00000000E+00
  0.00000000E+00  0.00000000E+00  0.00000000E+00
  0.00000000E+00  0.00000000E+00  0.00000000E+00
  0.00000000E+00  0.00000000E+00  0.00000000E+00
  0.00000000E+00  0.00000000E+00  0.00000000E+00
  0.00000000E+00  0.00000000E+00  0.00000000E+00
  0.00000000E+00  0.00000000E+00  0.00000000E+00
  0.00000000E+00  0.00000000E+00  0.00000000E+00
  0.00000000E+00  0.00000000E+00  0.00000000E+00
  0.00000000E+00  0.00000000E+00  0.00000000E+00
  0.00000000E+00  0.00000000E+00  0.00000000E+00
  0.00000000E+00  0.00000000E+00  0.00000000E+00
  0.00000000E+00  0.00000000E+00  0.00000000E+00
  0.00000000E+00  0.00000000E+00  0.00000000E+00
  0.00000000E+00  0.00000000E+00  0.00000000E+00
  0.00000000E+00  0.00000000E+00  0.00000000E+00
  0.00000000E+00  0.00000000E+00  0.00000000E+00
  0.00000000E+00  0.00000000E+00  0.00000000E+00
  0.00000000E+00  0.00000000E+00  0.00000000E+00
  0.00000000E+00  0.00000000E+00  0.00000000E+00
  0.00000000E+00  0.00000000E+00  0.00000000E+00
  0.00000000E+00  0.00000000E+00  0.00000000E+00
  0.00000000E+00  0.00000000E+00  0.00000000E+00
  0.00000000E+00  0.00000000E+00  0.00000000E+00
  0.00000000E+00  0.00000000E+00  0.00000000E+00
  0.00000000E+00  0.00000000E+00  0.00000000E+00
  0.00000000E+00  0.00000000E+00  0.00000000E+00
  0.00000000E+00  0.00000000E+00  0.00000000E+00
  0.00000000E+00  0.00000000E+00  0.00000000E+00
  0.00000000E+00  0.00000000E+00  0.00000000E+00
  0.00000000E+00  0.00000000E+00  0.00000000E+00
  0.00000000E+00  0.00000000E+00  0.00000000E+00
  0.00000000E+00  0.00000000E+00  0.00000000E+00
  0.00000000E+00  0.00000000E+00  0.00000000E+00
  0.00000000E+00  0.00000000E+00  0.00000000E+00
  0.00000000E+00  0.00000000E+00  0.00000000E+00
  0.00000000E+00  0.00000000E+00  0.00000000E+00
  0.00000000E+00  0.00000000E+00  0.00000000E+00
  0.00000000E+00  0.00000000E+00  0.00000000E+00
  0.00000000E+00  0.00000000E+00  0.00000000E+00
  0.00000000E+00  0.00000000E+00  0.00000000E+00
  0.00000000E+00  0.00000000E+00  0.00000000E+00
  0.00000000E+00  0.00000000E+00  0.00000000E+00
  0.00000000E+00  0.00000000E+00  0.00000000E+00
  0.00000000E+00  0.00000000E+00  0.00000000E+00
  0.00000000E+00  0.00000000E+00  0.00000000E+00
  0.00000000E+00  0.00000000E+00  0.00000000E+00
  0.00000000E+00  0.00000000E+00  0.00000000E+00
  0.00000000E+00  0.00000000E+00  0.00000000E+00
  0.00000000E+00  0.00000000E+00  0.00000000E+00
  0.00000000E+00  0.00000000E+00  0.00000000E+00
  0.00000000E+00  0.00000000E+00  0.00000000E+00
  0.00000000E+00  0.00000000E+00  0.00000000E+00
  0.00000000E+00  0.00000000E+00  0.00000000E+00
  0.00000000E+00  0.00000000E+00  0.00000000E+00
  0.00000000E+00  0.00000000E+00  0.00000000E+00
  0.00000000E+00  0.00000000E+00  0.00000000E+00
  0.00000000E+00  0.00000000E+00  0.00000000E+00
  0.00000000E+00  0.00000000E+00  0.00000000E+00
  0.00000000E+00  0.00000000E+00  0.00000000E+00
  0.00000000E+00  0.00000000E+00  0.00000000E+00
  0.00000000E+00  0.00000000E+00  0.00000000E+00
  0.00000000E+00  0.00000000E+00  0.00000000E+00
  0.00000000E+00  0.00000000E+00  0.00000000E+00
  0.00000000E+00  0.00000000E+00  0.00000000E+00
  0.00000000E+00  0.00000000E+00  0.00000000E+00
  0.00000000E+00  0.00000000E+00  0.00000000E+00
  0.00000000E+00  0.00000000E+00  0.00000000E+00
  0.00000000E+00  0.00000000E+00  0.00000000E+00
  0.00000000E+00  0.00000000E+00  0.00000000E+00
  0.00000000E+00  0.00000000E+00  0.00000000E+00
  0.00000000E+00  0.00000000E+00  0.00000000E+00
  0.00000000E+00  0.00000000E+00  0.00000000E+00
  0.00000000E+00  0.00000000E+00  0.00000000E+00
  0.00000000E+00  0.00000000E+00  0.00000000E+00
  0.00000000E+00  0.00000000E+00  0.00000000E+00
  0.00000000E+00  0.00000000E+00  0.00000000E+00
  0.00000000E+00  0.00000000E+00  0.00000000E+00
  0.00000000E+00  0.00000000E+00  0.00000000E+00
  0.00000000E+00  0.00000000E+00  0.00000000E+00
  0.00000000E+00  0.00000000E+00  0.00000000E+00
  0.00000000E+00  0.00000000E+00  0.00000000E+00
  0.00000000E+00  0.00000000E+00  0.00000000E+00
  0.00000000E+00  0.00000000E+00  0.00000000E+00
  0.00000000E+00  0.00000000E+00  0.00000000E+00
  0.00000000E+00  0.00000000E+00  0.00000000E+00
  0.00000000E+00  0.00000000E+00  0.00000000E+00
  0.00000000E+00  0.00000000E+00  0.00000000E+00
  0.00000000E+00  0.00000000E+00  0.00000000E+00
  0.00000000E+00  0.00000000E+00  0.00000000E+00
  0.00000000E+00  0.00000000E+00  0.00000000E+00
  0.00000000E+00  0.00000000E+00  0.00000000E+00
  0.00000000E+00  0.00000000E+00  0.00000000E+00
  0.00000000E+00  0.00000000E+00  0.00000000E+00
  0.00000000E+00  0.00000000E+00  0.00000000E+00
  0.00000000E+00  0.00000000E+00  0.00000000E+00
  0.00000000E+00  0.00000000E+00  0.00000000E+00
  0.00000000E+00  0.00000000E+00  0.00000000E+00
  0.00000000E+00  0.00000000E+00  0.00000000E+00
  0.00000000E+00  0.00000000E+00  0.00000000E+00
  0.00000000E+00  0.00000000E+00  0.00000000E+00
  0.00000000E+00  0.00000000E+00  0.00000000E+00
  0.00000000E+00  0.00000000E+00  0.00000000E+00
  0.00000000E+00  0.00000000E+00  0.00000000E+00
  0.00000000E+00  0.00000000E+00  0.00000000E+00
  0.00000000E+00  0.00000000E+00  0.00000000E+00
  0.00000000E+00  0.00000000E+00  0.00000000E+00
  0.00000000E+00  0.00000000E+00  0.00000000E+00
  0.00000000E+00  0.00000000E+00  0.00000000E+00
  0.00000000E+00  0.00000000E+00  0.00000000E+00
  0.00000000E+00  0.00000000E+00  0.00000000E+00
  0.00000000E+00  0.00000000E+00  0.00000000E+00
  0.00000000E+00  0.00000000E+00  0.00000000E+00
  0.00000000E+00  0.00000000E+00  0.00000000E+00
  0.00000000E+00  0.00000000E+00  0.00000000E+00
  0.00000000E+00  0.00000000E+00  0.00000000E+00
  0.00000000E+00  0.00000000E+00  0.00000000E+00
  0.00000000E+00  0.00000000E+00  0.00000000E+00
  0.00000000E+00  0.00000000E+00  0.00000000E+00
  0.00000000E+00  0.00000000E+00  0.00000000E+00
  0.00000000E+00  0.00000000E+00  0.00000000E+00
  0.00000000E+00  0.00000000E+00  0.00000000E+00
  0.00000000E+00  0.00000000E+00  0.00000000E+00
  0.00000000E+00  0.00000000E+00  0.00000000E+00
  0.00000000E+00  0.00000000E+00  0.00000000E+00
  0.00000000E+00  0.00000000E+00  0.00000000E+00
  0.00000000E+00  0.00000000E+00  0.00000000E+00
  0.00000000E+00  0.00000000E+00  0.00000000E+00
  0.00000000E+00  0.00000000E+00  0.00000000E+00
  0.00000000E+00  0.00000000E+00  0.00000000E+00
  0.00000000E+00  0.00000000E+00  0.00000000E+00
  0.00000000E+00  0.00000000E+00  0.00000000E+00
  0.00000000E+00  0.00000000E+00  0.00000000E+00
  0.00000000E+00  0.00000000E+00  0.00000000E+00
  0.00000000E+00  0.00000000E+00  0.00000000E+00
  0.00000000E+00  0.00000000E+00  0.00000000E+00
  0.00000000E+00  0.00000000E+00  0.00000000E+00
  0.00000000E+00  0.00000000E+00  0.00000000E+00
  0.00000000E+00  0.00000000E+00  0.00000000E+00
  0.00000000E+00  0.00000000E+00  0.00000000E+00
  0.00000000E+00  0.00000000E+00  0.00000000E+00
  0.00000000E+00  0.00000000E+00  0.00000000E+00
  0.00000000E+00  0.00000000E+00  0.00000000E+00
  0.00000000E+00  0.00000000E+00  0.00000000E+00
  0.00000000E+00  0.00000000E+00  0.00000000E+00