 C  H  O Si  W                          
    1.000000000000000     
    23.4112945954000011    0.0000000000000000    0.0000000000000000
     0.0000000000000000   18.1212369513999967    0.0000000000000000
     0.0000000000000000    0.0000000000000000   26.8833665072999999
   C    H    O    Si   W 
     4    52   155    65     1
Selective dynamics
Direct
  0.5865926668531753  0.5659320490843249  0.7803244628047609   T   T   T
  0.5542223926044122  0.5006781569247886  0.7569975000813461   T   T   T
  0.6075464917419454  0.6269403337957556  0.7453229359413327   T   T   T
  0.5376102939844811  0.4430796760361018  0.7960936638612063   T   T   T
  0.7751003970200373  0.1225031736049061  0.6514510316533011   T   T   T
  0.9393659816904218  0.2979098113647041  0.3563349293400009   F   F   F
  0.8062780025056995  0.2265197457654509  0.3734565163880745   F   F   F
  0.9874774185445503  0.9628494490790658  0.3253027906056829   F   F   F
  0.6386709705916687  0.9827136985155320  0.3752311999972449   F   F   F
  0.8334767044401517  0.0142475121195673  0.3689926296547128   F   F   F
  0.7629313796624118  0.1604196043726489  0.4580381926778543   F   F   F
  0.9284308576354563  0.2686971191738434  0.5094010317020452   T   T   T
  0.5964311690945578  0.3235043947556662  0.3059271726651787   F   F   F
  0.9050200035104538  0.3536904553213398  0.6167451828007828   T   T   T
  0.6031072008153036  0.3797177711804072  0.6146735832979083   T   T   T
  0.6062612601363001  0.8897224213429059  0.5779392264498072   T   T   T
  0.0473322755321093  0.3563184861879446  0.6516967994696753   T   T   T
  0.9482088134892521  0.4387550742761164  0.4541014552468710   F   F   F
  0.7590766845863968  0.5495528409564372  0.4224881911837883   F   F   F
  0.8108119245150037  0.4015739654802143  0.6348531910061405   T   T   T
  0.6040403232220299  0.5879236752468842  0.3780347436188976   F   F   F
  0.7313720925931193  0.6651736343393182  0.3834605945055571   F   F   F
  0.8540912200421573  0.5616674445946330  0.4195961671555111   F   F   F
  0.0177028544603886  0.6230389977553088  0.3577783004107076   F   F   F
  0.8412970051396300  0.7315975219375090  0.4679422553080954   F   F   F
  0.8899856426659757  0.6179751931444970  0.7214853910399736   T   T   T
  0.5329286197741112  0.0048056100872245  0.4217030704774842   F   F   F
  0.2360328779740968  0.9993956837194560  0.3932050219465495   F   F   F
  0.2293119965611154  0.2570923065285982  0.3192303272980936   F   F   F
  0.1704393561745050  0.3490470785327915  0.2789829167401123   F   F   F
  0.3544851823821062  0.1748265540748264  0.3307727584112428   F   F   F
  0.2356541674775912  0.0649997745488164  0.3227384335196248   F   F   F
  0.5241578563342486  0.8440856860791086  0.5465625320331887   T   T   T
  0.4031566899311662  0.2647856737488105  0.6497124262010761   T   T   T
  0.2570798405212265  0.1123213437323076  0.5986448437637426   T   T   T
  0.3283192771219845  0.5063773130993567  0.4424346656312608   F   F   F
  0.4218944895423391  0.4579757072127180  0.4056905975982730   F   F   F
  0.4114378090370181  0.8123544561757612  0.3887867966224334   F   F   F
  0.2571406629317465  0.6746709273034526  0.2943268807443218   F   F   F
  0.3246796873695814  0.4377165620624979  0.3692576443915385   F   F   F
  0.4184126006972875  0.6035205019898910  0.3388198885480591   F   F   F
  0.1522959264009316  0.5072144951052380  0.3519294596467617   F   F   F
  0.6062076509446896  0.7172279769501344  0.3523979868156601   F   F   F
  0.4819451359588030  0.8806683177636927  0.4438283837725479   F   F   F
  0.1345200448607738  0.3424435106364296  0.6115293680462274   T   T   T
  0.0826475675836170  0.6832886183927038  0.6457106813322435   T   T   T
  0.2579477035723645  0.4017418238895571  0.6821889644524420   T   T   T
  0.2571735001788496  0.8331445279776377  0.6700918491371941   T   T   T
  0.5591834684480358  0.5893059446008910  0.8097156816776238   T   T   T
  0.6237977698300012  0.5412067125798029  0.7995537150785509   T   T   T
  0.6314791809430423  0.6686971139280209  0.7664697830584901   T   T   T
  0.5718370405972515  0.6550567710819439  0.7267492643247987   T   T   T
  0.6360062897435640  0.6043376842719441  0.7167425081796783   T   T   T
  0.5094460593888844  0.4678465575026656  0.8242671245452426   T   T   T
  0.5157749898853705  0.3957157567480303  0.7792453205540301   T   T   T
  0.5766421607991266  0.4235327347240701  0.8150561895631199   T   T   T
  0.3818800396073883  0.6675959459462888  0.4390000177989322   F   F   F
  0.3597539557939058  0.5232747164731535  0.4203881275781143   F   F   F
  0.8736727368503573  0.5854561520574919  0.6966757430834304   T   T   T
  0.3610667449395967  0.9746167745529083  0.5318073576929115   T   T   T
  0.0459281399321427  0.9509414122866287  0.5286576467033492   T   T   T
  0.6492937881119261  0.0981093940857747  0.4893766723794641   F   F   F
  0.0815844522936757  0.0715062700003273  0.3951107345583225   F   F   F
  0.4648378482448337  0.1488031733550272  0.4205972814427668   F   F   F
  0.8188224550990100  0.2328910282176224  0.4831666074103040   F   F   F
  0.9866459516335420  0.2002679120660968  0.5980629721374134   T   T   T
  0.2877035986969716  0.3184137195358971  0.4485122250900346   F   F   F
  0.5692924720092307  0.7943321397038829  0.4417510122690658   F   F   F
  0.4046339793370958  0.9891158109985346  0.6204376651547804   T   T   T
  0.1904555456718597  0.3692092978547876  0.4052731245300478   F   F   F
  0.8799023270959552  0.7038081005380870  0.6376661138396599   T   T   T
  0.8786343160404826  0.9864177806033112  0.4670384592975196   F   F   F
  0.3139854424024833  0.7801776834000549  0.4579252567998537   F   F   F
  0.4345492514348379  0.2804930655406466  0.3795963030273342   F   F   F
  0.8243331278514001  0.4842937447206367  0.5203674178055385   T   T   T
  0.9969190387244148  0.0910849368095363  0.5209422574314456   T   T   T
  0.5334919231372222  0.4790016454484277  0.6262913142597526   T   T   T
  0.0474747119311374  0.9391886101777303  0.4294052572495062   F   F   F
  0.9759748477575059  0.3224361564697276  0.3512576249606170   F   F   F
  0.0825649962617376  0.3553466140560104  0.3763717815531962   F   F   F
  0.2212339633438845  0.7478851427214295  0.3953601014000157   F   F   F
  0.0518395687263720  0.4383427641054567  0.4991087535393461   F   F   F
  0.2513831606887771  0.3051096389952866  0.5879885048465240   T   T   T
  0.4073725918387183  0.2123824679984631  0.6436542402556488   T   T   T
  0.4680499279392596  0.5785810400003616  0.5838922486928407   T   T   T
  0.9228923738097434  0.7682573557007994  0.5574556208395792   T   T   T
  0.8820655771427965  0.1272841908845805  0.4422783307318099   F   F   F
  0.5855151003885553  0.6865727013919667  0.3761317316733468   F   F   F
  0.1553648649086767  0.1783663473390504  0.3759722435750490   F   F   F
  0.3619678893945028  0.7862285016685039  0.6064538260053856   T   T   T
  0.9239343556080684  0.8642884199511940  0.4831796236075121   F   F   F
  0.0742763163038944  0.5561125543589398  0.4422534820284341   F   F   F
  0.7212773335212930  0.5744074003724364  0.4199576800001736   F   F   F
  0.0884255630894657  0.8360476534200529  0.4829941554854784   F   F   F
  0.7134030770102413  0.8467965635370831  0.4326352913293690   F   F   F
  0.7431181203727601  0.0685355093336186  0.5430391127820148   T   T   T
  0.9322724248168629  0.3199996404930056  0.6321806887381123   T   T   T
  0.7478326969932269  0.8721496800367274  0.6128948809992956   T   T   T
  0.6380602601996515  0.5466348505873597  0.4863787091564404   F   F   F
  0.5695116045513942  0.6489438889092014  0.4672494240254110   F   F   F
  0.4392590345455626  0.2643396868480168  0.5553461928101404   T   T   T
  0.9912283996465234  0.7474844821307940  0.4767956400891720   F   F   F
  0.6672478034256211  0.6137842979295185  0.6326689233681637   T   T   T
  0.4098614358171233  0.7645664935755093  0.5155061087991238   T   T   T
  0.6156283743524185  0.5369063002972894  0.3856709925442061   F   F   F
  0.7330788612940630  0.6499658908754615  0.5567403919296735   T   T   T
  0.1591413580520426  0.3838570251640700  0.6198241750786547   T   T   T
  0.0787583652431691  0.5670674429150705  0.5421530607755195   T   T   T
  0.8312204394612998  0.9028283629969404  0.5361278167322044   T   T   T
  0.8411538364743336  0.3746259912495731  0.4519033357708793   F   F   F
  0.5405995712584344  0.3153089103916700  0.5302916355567514   T   T   T
  0.7503968499151521  0.5182606100652692  0.5959846375660357   T   T   T
  0.5703722419124730  0.1916719537028229  0.3949085375269945   F   F   F
  0.8189023888033304  0.2756534189958160  0.3832928600033014   F   F   F
  0.2503845225758425  0.9724915989978911  0.5079195554207132   F   F   F
  0.7056451182591897  0.7950820417798291  0.5414366270111325   T   T   T
  0.9360217613321000  0.9691086133480663  0.5529748250670857   T   T   T
  0.5386755281670546  0.3370219681065905  0.3985559351687087   F   F   F
  0.4809706541980195  0.0073469423606343  0.5467650575458672   T   T   T
  0.8506102856822024  0.1142170677488217  0.5396970037286583   T   T   T
  0.5508415588553319  0.1356583378375120  0.4862370923690094   F   F   F
  0.3631317483280938  0.2058495809580165  0.4396363938456389   F   F   F
  0.0246986286296718  0.9816547484255693  0.3352437574830063   F   F   F
  0.4746226206725796  0.6063386867109621  0.6776450956420740   T   T   T
  0.6679035273651195  0.9446383528340832  0.3792282539811964   F   F   F
  0.0892316487599132  0.7052671059300550  0.4358810225764742   F   F   F
  0.4669351303957968  0.4217914578109320  0.5539930541713489   T   T   T
  0.7321577424393908  0.7196616998697323  0.3795829994963285   F   F   F
  0.4597496883809449  0.7202191900616965  0.6026288675617147   T   T   T
  0.7654893649184586  0.7285654239274564  0.4762954835743187   F   F   F
  0.7926464315280661  0.1398701814133157  0.6209823711364455   T   T   T
  0.0062129213597686  0.3272543219478479  0.4484029789284989   F   F   F
  0.5455976827732580  0.5280902886109453  0.5299863700743435   T   T   T
  0.8297158910284423  0.5183025829956378  0.4234422052650615   F   F   F
  0.2491137943586173  0.1642300600301205  0.6053929885467767   T   T   T
  0.2164716115292222  0.8499421646046486  0.4705336293601903   F   F   F
  0.2523306182818059  0.5780583763999434  0.5228561494140817   T   T   T
  0.0726211596337458  0.6430513238524548  0.6236406815324264   T   T   T
  0.0590123780178757  0.6215875407013201  0.3541786312221902   F   F   F
  0.8139464553938451  0.9975710279948786  0.6050583798128066   T   T   T
  0.5509292155242846  0.0469383403057932  0.4045027517534763   F   F   F
  0.6179746565187295  0.3319255276481843  0.6044473971712149   T   T   T
  0.8744844133469769  0.0233216980176394  0.3692063291070653   F   F   F
  0.1078496137948619  0.1682636839286573  0.4670823258906296   F   F   F
  0.1847756477602196  0.2224565082476116  0.5305348053958929   T   T   T
  0.6539269606969853  0.7236795687599837  0.4548155821771758   F   F   F
  0.4497260892193609  0.4290093294258313  0.3864132536704119   F   F   F
  0.5867823795733345  0.0764903249429770  0.5708184823569576   T   T   T
  0.1643760520149868  0.6126488720257584  0.3889583608347777   F   F   F
  0.2806780958897832  0.6215783799469889  0.3923062966030031   F   F   F
  0.4531967658437921  0.3414390308388207  0.4703244327181508   F   F   F
  0.2509479717027716  0.1777519778823802  0.4299011866524154   F   F   F
  0.0864256402232321  0.1681592633844221  0.5625567364864876   T   T   T
  0.8581684206423363  0.5642008344031878  0.5996059157181894   T   T   T
  0.6341177342396307  0.2991807251252681  0.4109054511829981   F   F   F
  0.6156052991868037  0.9107675143562233  0.4672234595428861   F   F   F
  0.0443236970310679  0.2145306776470548  0.3889918752683101   F   F   F
  0.6206331692910420  0.2140254741821181  0.5476228719814927   T   T   T
  0.1457380321429156  0.9575954931015929  0.4794870772378772   F   F   F
  0.0930105448786217  0.2992655144514518  0.5121599514906933   T   T   T
  0.3850273676740401  0.1212799467554219  0.5694302579702203   T   T   T
  0.0788171087866583  0.7157163761673762  0.5357925519776406   T   T   T
  0.6794266860994966  0.4346257261250699  0.4300115561107631   F   F   F
  0.8125256417964535  0.7484940814338159  0.5641151431431909   T   T   T
  0.7167768644263148  0.9764492818587414  0.4701845621740759   F   F   F
  0.6109747579762603  0.6534733768895058  0.5527467677909715   T   T   T
  0.7357786056793358  0.3129255026406241  0.4516681052539582   F   F   F
  0.9903111662031481  0.3335345587491969  0.5471362056020393   T   T   T
  0.1704088516879315  0.6487913279861033  0.5704875411093411   T   T   T
  0.6462721506235880  0.3460239278258683  0.5078007023299378   F   F   F
  0.8338061106374730  0.4164446350801730  0.6065619548856304   T   T   T
  0.9715165039023788  0.0464838929288192  0.4169530046787955   F   F   F
  0.2953601230758712  0.2148067581732797  0.5187225418309238   T   T   T
  0.2621958555661266  0.4622737377063828  0.4610556955705079   F   F   F
  0.2822587126589383  0.8683566167041396  0.5693076034106762   T   T   T
  0.2166064551316182  0.7048140180077453  0.4868887178860462   F   F   F
  0.1600617592624687  0.4953107252313274  0.4925449251270066   F   F   F
  0.2371525694510564  0.4421093336105492  0.5568729812748019   T   T   T
  0.9243552840987945  0.4719854467454496  0.4737188145108959   F   F   F
  0.8827264819311651  0.7238009590826167  0.4641535209108483   F   F   F
  0.7510585136247201  0.1120754670960693  0.4452296472671975   F   F   F
  0.2351217422736269  0.9490220383635588  0.4079468165165281   F   F   F
  0.2646849940194868  0.4218608260704330  0.6493144081966603   T   T   T
  0.6432752967088367  0.9023403110535112  0.5932321934635766   T   T   T
  0.4231615711588290  0.8083032405663175  0.4234373851432949   F   F   F
  0.9307096585437407  0.2152791422268407  0.5082451459005242   F   F   F
  0.1454853642318810  0.4627769623937752  0.3322726622007863   F   F   F
  0.1680859866982658  0.3227641037735438  0.3105604161752922   F   F   F
  0.3859434510822339  0.1501478918234938  0.3479534200993726   F   F   F
  0.0478096341670246  0.3103099489961841  0.6331958038413837   T   T   T
  0.5856275665911070  0.2761090399460926  0.3200996781806822   F   F   F
  0.2570826214672204  0.7881549952968375  0.6505846819043297   T   T   T
  0.2203126047102515  0.6676458982647944  0.3103690611938177   F   F   F
  0.2883127175922127  0.4114321476112437  0.3673758273212613   F   F   F
  0.3782891182998398  0.6168274807434244  0.3422207943191111   F   F   F
  0.2393191560347319  0.0754216726072343  0.3581188824802055   F   F   F
  0.2541416408437627  0.2153190761895090  0.3293429668079639   F   F   F
  0.5142112319844543  0.9115424704388388  0.4548416832162587   F   F   F
  0.5631447768723922  0.8460792363379293  0.5342203903309946   T   T   T
  0.5578730898622709  0.6682001760218759  0.6331364297421985   T   T   T
  0.4909722169272572  0.1393273721792125  0.5961455569543586   T   T   T
  0.2743976702028548  0.7129803781902746  0.5691953735312878   T   T   T
  0.4560978498322926  0.8638617665619421  0.5822026407869302   T   T   T
  0.7787119528035965  0.6370603715884711  0.6491430716596385   T   T   T
  0.8578483966318701  0.8511349156421323  0.6227201502088973   T   T   T
  0.6528854363426729  0.7590871001099279  0.6208865009283301   T   T   T
  0.0207414421060881  0.0520355838788563  0.6029999324046195   T   T   T
  0.2968816304412258  0.0199502607336814  0.5944587972975213   T   T   T
  0.5165128550296816  0.9893299650514354  0.6290943694475533   T   T   T
  0.4496238847098724  0.4484704086972803  0.7068954619565033   T   T   T
  0.5780752127452335  0.4706021451319932  0.7126832305561660   T   T   T
  0.0961635850711957  0.6256611492909556  0.4064130837160320   F   F   F
  0.4210447004859556  0.7833285007005316  0.5751994254545063   T   T   T
  0.8547021247805446  0.4606939636889251  0.4678389696388976   F   F   F
  0.0300277994959615  0.0097228874087989  0.3936113541928137   F   F   F
  0.0276385124588003  0.3034311222094530  0.3910814136036507   F   F   F
  0.0226801405515804  0.1334430933692886  0.5722316142850729   T   T   T
  0.6228373650153982  0.6772970983429648  0.6102802019332100   T   T   T
  0.2268077471382715  0.4950768537840904  0.5097243802220148   T   T   T
  0.9280004336206318  0.7748017859179299  0.4962545438487922   F   F   F
  0.5335168483124306  0.1296964745833833  0.4259865881079392   F   F   F
  0.4310353995197707  0.1867193502736097  0.5890025189963588   T   T   T
  0.0963908339821131  0.1584129255516871  0.4069808717903314   F   F   F
  0.7148362403478501  0.0640871029831658  0.4873230277072054   F   F   F
  0.6779976604655786  0.9172783119643739  0.4374764361266443   F   F   F
  0.6630370498221652  0.5232679055528848  0.4301508871204760   F   F   F
  0.2113989533805665  0.9317230798851313  0.4639906909803457   F   F   F
  0.2268087463641620  0.3860761554017161  0.6037204562121693   T   T   T
  0.6865539903245897  0.8328430028857002  0.5944525731159517   T   T   T
  0.2288422294297693  0.6606359676497716  0.5386186900616661   T   T   T
  0.3817274242111992  0.7543685817998522  0.4592092972079129   F   F   F
  0.8102346760369152  0.9074452599132515  0.5952759890314885   T   T   T
  0.8922913365414682  0.9312254010064115  0.5119010343441553   T   T   T
  0.5893310004048502  0.5938653066631844  0.5117154040296422   T   T   T
  0.6026448306783865  0.1341817541903105  0.5253178532432528   T   T   T
  0.8710606470245565  0.1713540808397624  0.4951759473310489   F   F   F
  0.8486409748258719  0.6233361590814179  0.6458717012797238   T   T   T
  0.1466768266085694  0.3795597521203007  0.3568722791356791   F   F   F
  0.8035935941512662  0.2991800941308185  0.4418726542293072   F   F   F
  0.4121144026288661  0.1967356924280637  0.3960031981861079   F   F   F
  0.8691348259443080  0.7693384670954307  0.5965463005789803   T   T   T
  0.2947144609603731  0.9527647761618685  0.5503397776792673   T   T   T
  0.0360130381135448  0.3496883630781653  0.5022455100715746   F   F   F
  0.5874976906511620  0.7147309294571116  0.4355643604055430   F   F   F
  0.2431792600640819  0.7718413450526640  0.4519695445397645   F   F   F
  0.6065793306690004  0.3026284234699924  0.5478994425455540   T   T   T
  0.9884190069440256  0.2909506751356643  0.6023645806549988   T   T   T
  0.9018446648823968  0.0446498473783379  0.4242001869335610   F   F   F
  0.1178848213851626  0.2143601976023181  0.5178786478281309   T   T   T
  0.0610839667120615  0.7522779419168444  0.4826301941714348   F   F   F
  0.2450732381049942  0.2249684483913849  0.5611219129196005   T   T   T
  0.5743461129096872  0.2770261182142306  0.3812261074005363   F   F   F
  0.4904265297030186  0.6449667061189542  0.6225534817237390   T   T   T
  0.2926643497309340  0.7892981468046056  0.5981784339243310   T   T   T
  0.2214391311179469  0.6626406929831035  0.3717945352858223   F   F   F
  0.7535311871208197  0.7298520604911514  0.5358295037127809   T   T   T
  0.9990923539016191  0.0092270311758472  0.5503842325660540   T   T   T
  0.7160428636503227  0.7560590016416171  0.4342603982179796   F   F   F
  0.8010208677549697  0.0786454613711450  0.5766797516521828   T   T   T
  0.4692522038277289  0.3476924435061761  0.4092878915485585   F   F   F
  0.4626074660365411  0.9530416629796541  0.5951730686032503   T   T   T
  0.5213617414967103  0.0583772134409777  0.5862523018262653   T   T   T
  0.2571854575028354  0.3896471723604478  0.4209471039025985   F   F   F
  0.6714636495343740  0.3492429593277677  0.4503479098948588   F   F   F
  0.4735822624750938  0.3357195396787852  0.5287494065179265   T   T   T
  0.3502376736681043  0.6091833902449935  0.3990830096962270   F   F   F
  0.8167752594170898  0.4958026271626433  0.5800723270259658   T   T   T
  0.0821480952074083  0.9181000041832874  0.4805055068825652   F   F   F
  0.2248458846776415  0.1636951697912394  0.3735965933534686   F   F   F
  0.0911711624512606  0.5132258435408943  0.4946876202126234   F   F   F
  0.5705084947790979  0.8715809471089386  0.4747302534090920   F   F   F
  0.7317115653645254  0.6039003020277925  0.6094167321339812   T   T   T
  0.2995804300514706  0.2293425870282846  0.4591107728955208   F   F   F
  0.1001689073191499  0.6441967080336376  0.5677564389386532   T   T   T
  0.3660158939568996  0.0357446406637421  0.5793087604025385   T   T   T
  0.5014304518326952  0.4979245637996698  0.5725766632574943   T   T   T
  0.5035168477888124  0.5093129199284560  0.6922407282787639   T   T   T
 
  0.00000000E+00  0.00000000E+00  0.00000000E+00
  0.00000000E+00  0.00000000E+00  0.00000000E+00
  0.00000000E+00  0.00000000E+00  0.00000000E+00
  0.00000000E+00  0.00000000E+00  0.00000000E+00
  0.00000000E+00  0.00000000E+00  0.00000000E+00
  0.00000000E+00  0.00000000E+00  0.00000000E+00
  0.00000000E+00  0.00000000E+00  0.00000000E+00
  0.00000000E+00  0.00000000E+00  0.00000000E+00
  0.00000000E+00  0.00000000E+00  0.00000000E+00
  0.00000000E+00  0.00000000E+00  0.00000000E+00
  0.00000000E+00  0.00000000E+00  0.00000000E+00
  0.00000000E+00  0.00000000E+00  0.00000000E+00
  0.00000000E+00  0.00000000E+00  0.00000000E+00
  0.00000000E+00  0.00000000E+00  0.00000000E+00
  0.00000000E+00  0.00000000E+00  0.00000000E+00
  0.00000000E+00  0.00000000E+00  0.00000000E+00
  0.00000000E+00  0.00000000E+00  0.00000000E+00
  0.00000000E+00  0.00000000E+00  0.00000000E+00
  0.00000000E+00  0.00000000E+00  0.00000000E+00
  0.00000000E+00  0.00000000E+00  0.00000000E+00
  0.00000000E+00  0.00000000E+00  0.00000000E+00
  0.00000000E+00  0.00000000E+00  0.00000000E+00
  0.00000000E+00  0.00000000E+00  0.00000000E+00
  0.00000000E+00  0.00000000E+00  0.00000000E+00
  0.00000000E+00  0.00000000E+00  0.00000000E+00
  0.00000000E+00  0.00000000E+00  0.00000000E+00
  0.00000000E+00  0.00000000E+00  0.00000000E+00
  0.00000000E+00  0.00000000E+00  0.00000000E+00
  0.00000000E+00  0.00000000E+00  0.00000000E+00
  0.00000000E+00  0.00000000E+00  0.00000000E+00
  0.00000000E+00  0.00000000E+00  0.00000000E+00
  0.00000000E+00  0.00000000E+00  0.00000000E+00
  0.00000000E+00  0.00000000E+00  0.00000000E+00
  0.00000000E+00  0.00000000E+00  0.00000000E+00
  0.00000000E+00  0.00000000E+00  0.00000000E+00
  0.00000000E+00  0.00000000E+00  0.00000000E+00
  0.00000000E+00  0.00000000E+00  0.00000000E+00
  0.00000000E+00  0.00000000E+00  0.00000000E+00
  0.00000000E+00  0.00000000E+00  0.00000000E+00
  0.00000000E+00  0.00000000E+00  0.00000000E+00
  0.00000000E+00  0.00000000E+00  0.00000000E+00
  0.00000000E+00  0.00000000E+00  0.00000000E+00
  0.00000000E+00  0.00000000E+00  0.00000000E+00
  0.00000000E+00  0.00000000E+00  0.00000000E+00
  0.00000000E+00  0.00000000E+00  0.00000000E+00
  0.00000000E+00  0.00000000E+00  0.00000000E+00
  0.00000000E+00  0.00000000E+00  0.00000000E+00
  0.00000000E+00  0.00000000E+00  0.00000000E+00
  0.00000000E+00  0.00000000E+00  0.00000000E+00
  0.00000000E+00  0.00000000E+00  0.00000000E+00
  0.00000000E+00  0.00000000E+00  0.00000000E+00
  0.00000000E+00  0.00000000E+00  0.00000000E+00
  0.00000000E+00  0.00000000E+00  0.00000000E+00
  0.00000000E+00  0.00000000E+00  0.00000000E+00
  0.00000000E+00  0.00000000E+00  0.00000000E+00
  0.00000000E+00  0.00000000E+00  0.00000000E+00
  0.00000000E+00  0.00000000E+00  0.00000000E+00
  0.00000000E+00  0.00000000E+00  0.00000000E+00
  0.00000000E+00  0.00000000E+00  0.00000000E+00
  0.00000000E+00  0.00000000E+00  0.00000000E+00
  0.00000000E+00  0.00000000E+00  0.00000000E+00
  0.00000000E+00  0.00000000E+00  0.00000000E+00
  0.00000000E+00  0.00000000E+00  0.00000000E+00
  0.00000000E+00  0.00000000E+00  0.00000000E+00
  0.00000000E+00  0.00000000E+00  0.00000000E+00
  0.00000000E+00  0.00000000E+00  0.00000000E+00
  0.00000000E+00  0.00000000E+00  0.00000000E+00
  0.00000000E+00  0.00000000E+00  0.00000000E+00
  0.00000000E+00  0.00000000E+00  0.00000000E+00
  0.00000000E+00  0.00000000E+00  0.00000000E+00
  0.00000000E+00  0.00000000E+00  0.00000000E+00
  0.00000000E+00  0.00000000E+00  0.00000000E+00
  0.00000000E+00  0.00000000E+00  0.00000000E+00
  0.00000000E+00  0.00000000E+00  0.00000000E+00
  0.00000000E+00  0.00000000E+00  0.00000000E+00
  0.00000000E+00  0.00000000E+00  0.00000000E+00
  0.00000000E+00  0.00000000E+00  0.00000000E+00
  0.00000000E+00  0.00000000E+00  0.00000000E+00
  0.00000000E+00  0.00000000E+00  0.00000000E+00
  0.00000000E+00  0.00000000E+00  0.00000000E+00
  0.00000000E+00  0.00000000E+00  0.00000000E+00
  0.00000000E+00  0.00000000E+00  0.00000000E+00
  0.00000000E+00  0.00000000E+00  0.00000000E+00
  0.00000000E+00  0.00000000E+00  0.00000000E+00
  0.00000000E+00  0.00000000E+00  0.00000000E+00
  0.00000000E+00  0.00000000E+00  0.00000000E+00
  0.00000000E+00  0.00000000E+00  0.00000000E+00
  0.00000000E+00  0.00000000E+00  0.00000000E+00
  0.00000000E+00  0.00000000E+00  0.00000000E+00
  0.00000000E+00  0.00000000E+00  0.00000000E+00
  0.00000000E+00  0.00000000E+00  0.00000000E+00
  0.00000000E+00  0.00000000E+00  0.00000000E+00
  0.00000000E+00  0.00000000E+00  0.00000000E+00
  0.00000000E+00  0.00000000E+00  0.00000000E+00
  0.00000000E+00  0.00000000E+00  0.00000000E+00
  0.00000000E+00  0.00000000E+00  0.00000000E+00
  0.00000000E+00  0.00000000E+00  0.00000000E+00
  0.00000000E+00  0.00000000E+00  0.00000000E+00
  0.00000000E+00  0.00000000E+00  0.00000000E+00
  0.00000000E+00  0.00000000E+00  0.00000000E+00
  0.00000000E+00  0.00000000E+00  0.00000000E+00
  0.00000000E+00  0.00000000E+00  0.00000000E+00
  0.00000000E+00  0.00000000E+00  0.00000000E+00
  0.00000000E+00  0.00000000E+00  0.00000000E+00
  0.00000000E+00  0.00000000E+00  0.00000000E+00
  0.00000000E+00  0.00000000E+00  0.00000000E+00
  0.00000000E+00  0.00000000E+00  0.00000000E+00
  0.00000000E+00  0.00000000E+00  0.00000000E+00
  0.00000000E+00  0.00000000E+00  0.00000000E+00
  0.00000000E+00  0.00000000E+00  0.00000000E+00
  0.00000000E+00  0.00000000E+00  0.00000000E+00
  0.00000000E+00  0.00000000E+00  0.00000000E+00
  0.00000000E+00  0.00000000E+00  0.00000000E+00
  0.00000000E+00  0.00000000E+00  0.00000000E+00
  0.00000000E+00  0.00000000E+00  0.00000000E+00
  0.00000000E+00  0.00000000E+00  0.00000000E+00
  0.00000000E+00  0.00000000E+00  0.00000000E+00
  0.00000000E+00  0.00000000E+00  0.00000000E+00
  0.00000000E+00  0.00000000E+00  0.00000000E+00
  0.00000000E+00  0.00000000E+00  0.00000000E+00
  0.00000000E+00  0.00000000E+00  0.00000000E+00
  0.00000000E+00  0.00000000E+00  0.00000000E+00
  0.00000000E+00  0.00000000E+00  0.00000000E+00
  0.00000000E+00  0.00000000E+00  0.00000000E+00
  0.00000000E+00  0.00000000E+00  0.00000000E+00
  0.00000000E+00  0.00000000E+00  0.00000000E+00
  0.00000000E+00  0.00000000E+00  0.00000000E+00
  0.00000000E+00  0.00000000E+00  0.00000000E+00
  0.00000000E+00  0.00000000E+00  0.00000000E+00
  0.00000000E+00  0.00000000E+00  0.00000000E+00
  0.00000000E+00  0.00000000E+00  0.00000000E+00
  0.00000000E+00  0.00000000E+00  0.00000000E+00
  0.00000000E+00  0.00000000E+00  0.00000000E+00
  0.00000000E+00  0.00000000E+00  0.00000000E+00
  0.00000000E+00  0.00000000E+00  0.00000000E+00
  0.00000000E+00  0.00000000E+00  0.00000000E+00
  0.00000000E+00  0.00000000E+00  0.00000000E+00
  0.00000000E+00  0.00000000E+00  0.00000000E+00
  0.00000000E+00  0.00000000E+00  0.00000000E+00
  0.00000000E+00  0.00000000E+00  0.00000000E+00
  0.00000000E+00  0.00000000E+00  0.00000000E+00
  0.00000000E+00  0.00000000E+00  0.00000000E+00
  0.00000000E+00  0.00000000E+00  0.00000000E+00
  0.00000000E+00  0.00000000E+00  0.00000000E+00
  0.00000000E+00  0.00000000E+00  0.00000000E+00
  0.00000000E+00  0.00000000E+00  0.00000000E+00
  0.00000000E+00  0.00000000E+00  0.00000000E+00
  0.00000000E+00  0.00000000E+00  0.00000000E+00
  0.00000000E+00  0.00000000E+00  0.00000000E+00
  0.00000000E+00  0.00000000E+00  0.00000000E+00
  0.00000000E+00  0.00000000E+00  0.00000000E+00
  0.00000000E+00  0.00000000E+00  0.00000000E+00
  0.00000000E+00  0.00000000E+00  0.00000000E+00
  0.00000000E+00  0.00000000E+00  0.00000000E+00
  0.00000000E+00  0.00000000E+00  0.00000000E+00
  0.00000000E+00  0.00000000E+00  0.00000000E+00
  0.00000000E+00  0.00000000E+00  0.00000000E+00
  0.00000000E+00  0.00000000E+00  0.00000000E+00
  0.00000000E+00  0.00000000E+00  0.00000000E+00
  0.00000000E+00  0.00000000E+00  0.00000000E+00
  0.00000000E+00  0.00000000E+00  0.00000000E+00
  0.00000000E+00  0.00000000E+00  0.00000000E+00
  0.00000000E+00  0.00000000E+00  0.00000000E+00
  0.00000000E+00  0.00000000E+00  0.00000000E+00
  0.00000000E+00  0.00000000E+00  0.00000000E+00
  0.00000000E+00  0.00000000E+00  0.00000000E+00
  0.00000000E+00  0.00000000E+00  0.00000000E+00
  0.00000000E+00  0.00000000E+00  0.00000000E+00
  0.00000000E+00  0.00000000E+00  0.00000000E+00
  0.00000000E+00  0.00000000E+00  0.00000000E+00
  0.00000000E+00  0.00000000E+00  0.00000000E+00
  0.00000000E+00  0.00000000E+00  0.00000000E+00
  0.00000000E+00  0.00000000E+00  0.00000000E+00
  0.00000000E+00  0.00000000E+00  0.00000000E+00
  0.00000000E+00  0.00000000E+00  0.00000000E+00
  0.00000000E+00  0.00000000E+00  0.00000000E+00
  0.00000000E+00  0.00000000E+00  0.00000000E+00
  0.00000000E+00  0.00000000E+00  0.00000000E+00
  0.00000000E+00  0.00000000E+00  0.00000000E+00
  0.00000000E+00  0.00000000E+00  0.00000000E+00
  0.00000000E+00  0.00000000E+00  0.00000000E+00
  0.00000000E+00  0.00000000E+00  0.00000000E+00
  0.00000000E+00  0.00000000E+00  0.00000000E+00
  0.00000000E+00  0.00000000E+00  0.00000000E+00
  0.00000000E+00  0.00000000E+00  0.00000000E+00
  0.00000000E+00  0.00000000E+00  0.00000000E+00
  0.00000000E+00  0.00000000E+00  0.00000000E+00
  0.00000000E+00  0.00000000E+00  0.00000000E+00
  0.00000000E+00  0.00000000E+00  0.00000000E+00
  0.00000000E+00  0.00000000E+00  0.00000000E+00
  0.00000000E+00  0.00000000E+00  0.00000000E+00
  0.00000000E+00  0.00000000E+00  0.00000000E+00